p cnf 416 1190
-27 1 0
-27 13 0
27 -1 -13 0
-28 2 14 0
-28 -2 -14 0
28 -2 14 0
28 2 -14 0
-29 17 0
-29 5 0
29 -17 -5 0
-30 28 27 0
-30 -28 -27 0
30 -28 27 0
30 28 -27 0
31 -15 0
31 -3 0
-31 15 3 0
-32 4 0
-32 16 0
32 -4 -16 0
33 32 0
-33 -32 0
-34 33 31 0
-34 -33 -31 0
34 -33 31 0
34 33 -31 0
-35 18 6 0
-35 -18 -6 0
35 -18 6 0
35 18 -6 0
36 35 0
-36 -35 0
37 -18 0
37 -6 0
-37 18 6 0
-38 7 19 0
-38 -7 -19 0
38 -7 19 0
38 7 -19 0
-39 19 0
-39 37 0
39 -19 -37 0
-40 38 37 0
-40 -38 -37 0
40 -38 37 0
40 38 -37 0
41 -7 0
41 -39 0
-41 7 39 0
-42 8 20 0
-42 -8 -20 0
42 -8 20 0
42 8 -20 0
-43 8 0
-43 20 0
43 -8 -20 0
-44 42 0
-44 41 0
44 -42 -41 0
-45 42 41 0
-45 -42 -41 0
45 -42 41 0
45 42 -41 0
46 -43 0
46 -44 0
-46 43 44 0
-47 9 21 0
-47 -9 -21 0
47 -9 21 0
47 9 -21 0
-48 9 0
-48 21 0
48 -9 -21 0
-49 47 0
-49 46 0
49 -47 -46 0
-50 47 46 0
-50 -47 -46 0
50 -47 46 0
50 47 -46 0
51 -48 0
51 -49 0
-51 48 49 0
-52 10 22 0
-52 -10 -22 0
52 -10 22 0
52 10 -22 0
-53 1 13 0
-53 -1 -13 0
53 -1 13 0
53 1 -13 0
-54 52 51 0
-54 -52 -51 0
54 -52 51 0
54 52 -51 0
55 -11 0
55 -23 0
-55 11 23 0
-56 12 24 0
-56 -12 -24 0
56 -12 24 0
56 12 -24 0
-57 12 0
-57 24 0
57 -12 -24 0
-58 56 0
-58 55 0
58 -56 -55 0
-59 56 55 0
-59 -56 -55 0
59 -56 55 0
59 56 -55 0
60 -57 0
60 -58 0
-60 57 58 0
-61 1 13 0
-61 -1 -13 0
61 -1 13 0
61 1 -13 0
-62 1 0
-62 13 0
62 -1 -13 0
-63 2 14 0
-63 -2 -14 0
63 -2 14 0
63 2 -14 0
-64 63 62 0
-64 -63 -62 0
64 -63 62 0
64 63 -62 0
-65 2 0
-65 14 0
65 -2 -14 0
-66 62 0
-66 63 0
66 -62 -63 0
67 -65 0
67 -66 0
-67 65 66 0
-68 3 15 0
-68 -3 -15 0
68 -3 15 0
68 3 -15 0
-69 68 67 0
-69 -68 -67 0
69 -68 67 0
69 68 -67 0
-70 3 0
-70 15 0
70 -3 -15 0
-71 67 0
-71 68 0
71 -67 -68 0
72 -70 0
72 -71 0
-72 70 71 0
-73 4 16 0
-73 -4 -16 0
73 -4 16 0
73 4 -16 0
-74 73 72 0
-74 -73 -72 0
74 -73 72 0
74 73 -72 0
-75 4 0
-75 16 0
75 -4 -16 0
-76 72 0
-76 73 0
76 -72 -73 0
77 -75 0
77 -76 0
-77 75 76 0
-78 5 17 0
-78 -5 -17 0
78 -5 17 0
78 5 -17 0
-79 78 77 0
-79 -78 -77 0
79 -78 77 0
79 78 -77 0
-80 5 0
-80 17 0
80 -5 -17 0
-81 77 0
-81 78 0
81 -77 -78 0
82 -80 0
82 -81 0
-82 80 81 0
-83 6 18 0
-83 -6 -18 0
83 -6 18 0
83 6 -18 0
-84 83 82 0
-84 -83 -82 0
84 -83 82 0
84 83 -82 0
-85 6 0
-85 18 0
85 -6 -18 0
-86 82 0
-86 83 0
86 -82 -83 0
87 -85 0
87 -86 0
-87 85 86 0
-88 7 19 0
-88 -7 -19 0
88 -7 19 0
88 7 -19 0
-89 88 87 0
-89 -88 -87 0
89 -88 87 0
89 88 -87 0
-90 7 0
-90 19 0
90 -7 -19 0
-91 87 0
-91 88 0
91 -87 -88 0
92 -90 0
92 -91 0
-92 90 91 0
-93 8 20 0
-93 -8 -20 0
93 -8 20 0
93 8 -20 0
-94 93 92 0
-94 -93 -92 0
94 -93 92 0
94 93 -92 0
-95 8 0
-95 20 0
95 -8 -20 0
-96 92 0
-96 93 0
96 -92 -93 0
97 -95 0
97 -96 0
-97 95 96 0
-98 9 21 0
-98 -9 -21 0
98 -9 21 0
98 9 -21 0
-99 98 97 0
-99 -98 -97 0
99 -98 97 0
99 98 -97 0
-100 9 0
-100 21 0
100 -9 -21 0
-101 97 0
-101 98 0
101 -97 -98 0
102 -100 0
102 -101 0
-102 100 101 0
-103 10 22 0
-103 -10 -22 0
103 -10 22 0
103 10 -22 0
-104 103 102 0
-104 -103 -102 0
104 -103 102 0
104 103 -102 0
-105 10 0
-105 22 0
105 -10 -22 0
-106 102 0
-106 103 0
106 -102 -103 0
107 -105 0
107 -106 0
-107 105 106 0
-108 11 23 0
-108 -11 -23 0
108 -11 23 0
108 11 -23 0
-109 108 107 0
-109 -108 -107 0
109 -108 107 0
109 108 -107 0
-110 11 0
-110 23 0
110 -11 -23 0
-111 107 0
-111 108 0
111 -107 -108 0
112 -110 0
112 -111 0
-112 110 111 0
-113 12 24 0
-113 -12 -24 0
113 -12 24 0
113 12 -24 0
-114 113 112 0
-114 -113 -112 0
114 -113 112 0
114 113 -112 0
-115 12 0
-115 24 0
115 -12 -24 0
-116 112 0
-116 113 0
116 -112 -113 0
117 -115 0
117 -116 0
-117 115 116 0
-118 61 53 0
-118 -61 -53 0
118 -61 53 0
118 61 -53 0
119 61 0
-119 -61 0
-120 119 0
-120 53 0
120 -119 -53 0
121 118 0
-121 -118 0
-122 64 30 0
-122 -64 -30 0
122 -64 30 0
122 64 -30 0
-123 122 120 0
-123 -122 -120 0
123 -122 120 0
123 122 -120 0
124 64 0
-124 -64 0
-125 124 0
-125 30 0
125 -124 -30 0
126 122 0
-126 -122 0
-127 126 0
-127 120 0
127 -126 -120 0
128 -125 0
128 -127 0
-128 125 127 0
-129 69 128 0
-129 -69 -128 0
129 -69 128 0
129 69 -128 0
130 69 0
-130 -69 0
131 69 0
-131 -69 0
-132 131 0
-132 128 0
132 -131 -128 0
-133 74 34 0
-133 -74 -34 0
133 -74 34 0
133 74 -34 0
-134 133 132 0
-134 -133 -132 0
134 -133 132 0
134 133 -132 0
135 74 0
-135 -74 0
-136 135 0
-136 34 0
136 -135 -34 0
137 133 0
-137 -133 0
-138 137 0
-138 132 0
138 -137 -132 0
139 -136 0
139 -138 0
-139 136 138 0
-140 79 29 0
-140 -79 -29 0
140 -79 29 0
140 79 -29 0
-141 140 139 0
-141 -140 -139 0
141 -140 139 0
141 140 -139 0
142 79 0
-142 -79 0
-143 142 0
-143 29 0
143 -142 -29 0
144 140 0
-144 -140 0
-145 144 0
-145 139 0
145 -144 -139 0
146 -143 0
146 -145 0
-146 143 145 0
-147 84 36 0
-147 -84 -36 0
147 -84 36 0
147 84 -36 0
-148 147 146 0
-148 -147 -146 0
148 -147 146 0
148 147 -146 0
149 84 0
-149 -84 0
-150 149 0
-150 36 0
150 -149 -36 0
151 147 0
-151 -147 0
-152 151 0
-152 146 0
152 -151 -146 0
153 -150 0
153 -152 0
-153 150 152 0
-154 89 40 0
-154 -89 -40 0
154 -89 40 0
154 89 -40 0
-155 154 153 0
-155 -154 -153 0
155 -154 153 0
155 154 -153 0
156 89 0
-156 -89 0
-157 156 0
-157 40 0
157 -156 -40 0
158 154 0
-158 -154 0
-159 158 0
-159 153 0
159 -158 -153 0
160 -157 0
160 -159 0
-160 157 159 0
-161 94 45 0
-161 -94 -45 0
161 -94 45 0
161 94 -45 0
-162 161 160 0
-162 -161 -160 0
162 -161 160 0
162 161 -160 0
163 94 0
-163 -94 0
-164 163 0
-164 45 0
164 -163 -45 0
165 161 0
-165 -161 0
-166 165 0
-166 160 0
166 -165 -160 0
167 -164 0
167 -166 0
-167 164 166 0
-168 99 50 0
-168 -99 -50 0
168 -99 50 0
168 99 -50 0
-169 168 167 0
-169 -168 -167 0
169 -168 167 0
169 168 -167 0
170 99 0
-170 -99 0
-171 170 0
-171 50 0
171 -170 -50 0
172 168 0
-172 -168 0
-173 172 0
-173 167 0
173 -172 -167 0
174 -171 0
174 -173 0
-174 171 173 0
-175 104 54 0
-175 -104 -54 0
175 -104 54 0
175 104 -54 0
-176 175 174 0
-176 -175 -174 0
176 -175 174 0
176 175 -174 0
177 104 0
-177 -104 0
-178 177 0
-178 54 0
178 -177 -54 0
179 175 0
-179 -175 0
-180 179 0
-180 174 0
180 -179 -174 0
181 -178 0
181 -180 0
-181 178 180 0
-182 109 181 0
-182 -109 -181 0
182 -109 181 0
182 109 -181 0
183 109 0
-183 -109 0
184 109 0
-184 -109 0
-185 184 0
-185 181 0
185 -184 -181 0
-186 114 59 0
-186 -114 -59 0
186 -114 59 0
186 114 -59 0
-187 186 185 0
-187 -186 -185 0
187 -186 185 0
187 186 -185 0
188 114 0
-188 -114 0
-189 188 0
-189 59 0
189 -188 -59 0
190 186 0
-190 -186 0
-191 190 0
-191 185 0
191 -190 -185 0
192 -189 0
192 -191 0
-192 189 191 0
-193 117 60 0
-193 -117 -60 0
193 -117 60 0
193 117 -60 0
-194 193 192 0
-194 -193 -192 0
194 -193 192 0
194 193 -192 0
195 117 0
-195 -117 0
-196 195 0
-196 60 0
196 -195 -60 0
197 193 0
-197 -193 0
-198 197 0
-198 192 0
198 -197 -192 0
199 -196 0
199 -198 0
-199 196 198 0
-200 53 61 0
-200 -53 -61 0
200 -53 61 0
200 53 -61 0
201 53 0
-201 -53 0
-202 201 0
-202 61 0
202 -201 -61 0
203 200 0
-203 -200 0
-204 30 64 0
-204 -30 -64 0
204 -30 64 0
204 30 -64 0
-205 204 202 0
-205 -204 -202 0
205 -204 202 0
205 204 -202 0
206 30 0
-206 -30 0
-207 206 0
-207 64 0
207 -206 -64 0
208 204 0
-208 -204 0
-209 208 0
-209 202 0
209 -208 -202 0
210 -207 0
210 -209 0
-210 207 209 0
-211 69 210 0
-211 -69 -210 0
211 -69 210 0
211 69 -210 0
212 69 0
-212 -69 0
-213 212 0
-213 210 0
213 -212 -210 0
214 -69 0
214 -213 0
-214 69 213 0
-215 34 74 0
-215 -34 -74 0
215 -34 74 0
215 34 -74 0
-216 215 214 0
-216 -215 -214 0
216 -215 214 0
216 215 -214 0
217 34 0
-217 -34 0
-218 217 0
-218 74 0
218 -217 -74 0
219 215 0
-219 -215 0
-220 219 0
-220 214 0
220 -219 -214 0
221 -218 0
221 -220 0
-221 218 220 0
-222 29 79 0
-222 -29 -79 0
222 -29 79 0
222 29 -79 0
-223 222 221 0
-223 -222 -221 0
223 -222 221 0
223 222 -221 0
224 29 0
-224 -29 0
-225 224 0
-225 79 0
225 -224 -79 0
226 222 0
-226 -222 0
-227 226 0
-227 221 0
227 -226 -221 0
228 -225 0
228 -227 0
-228 225 227 0
-229 36 84 0
-229 -36 -84 0
229 -36 84 0
229 36 -84 0
-230 229 228 0
-230 -229 -228 0
230 -229 228 0
230 229 -228 0
231 36 0
-231 -36 0
-232 231 0
-232 84 0
232 -231 -84 0
233 229 0
-233 -229 0
-234 233 0
-234 228 0
234 -233 -228 0
235 -232 0
235 -234 0
-235 232 234 0
-236 40 89 0
-236 -40 -89 0
236 -40 89 0
236 40 -89 0
-237 236 235 0
-237 -236 -235 0
237 -236 235 0
237 236 -235 0
238 40 0
-238 -40 0
-239 238 0
-239 89 0
239 -238 -89 0
240 236 0
-240 -236 0
-241 240 0
-241 235 0
241 -240 -235 0
242 -239 0
242 -241 0
-242 239 241 0
-243 45 94 0
-243 -45 -94 0
243 -45 94 0
243 45 -94 0
-244 243 242 0
-244 -243 -242 0
244 -243 242 0
244 243 -242 0
245 45 0
-245 -45 0
-246 245 0
-246 94 0
246 -245 -94 0
247 243 0
-247 -243 0
-248 247 0
-248 242 0
248 -247 -242 0
249 -246 0
249 -248 0
-249 246 248 0
-250 50 99 0
-250 -50 -99 0
250 -50 99 0
250 50 -99 0
-251 250 249 0
-251 -250 -249 0
251 -250 249 0
251 250 -249 0
252 50 0
-252 -50 0
-253 252 0
-253 99 0
253 -252 -99 0
254 250 0
-254 -250 0
-255 254 0
-255 249 0
255 -254 -249 0
256 -253 0
256 -255 0
-256 253 255 0
-257 54 104 0
-257 -54 -104 0
257 -54 104 0
257 54 -104 0
-258 257 256 0
-258 -257 -256 0
258 -257 256 0
258 257 -256 0
259 54 0
-259 -54 0
-260 259 0
-260 104 0
260 -259 -104 0
261 257 0
-261 -257 0
-262 261 0
-262 256 0
262 -261 -256 0
263 -260 0
263 -262 0
-263 260 262 0
-264 109 263 0
-264 -109 -263 0
264 -109 263 0
264 109 -263 0
265 109 0
-265 -109 0
-266 265 0
-266 263 0
266 -265 -263 0
267 -109 0
267 -266 0
-267 109 266 0
-268 59 114 0
-268 -59 -114 0
268 -59 114 0
268 59 -114 0
-269 268 267 0
-269 -268 -267 0
269 -268 267 0
269 268 -267 0
270 59 0
-270 -59 0
-271 270 0
-271 114 0
271 -270 -114 0
272 268 0
-272 -268 0
-273 272 0
-273 267 0
273 -272 -267 0
274 -271 0
274 -273 0
-274 271 273 0
-275 60 117 0
-275 -60 -117 0
275 -60 117 0
275 60 -117 0
-276 275 274 0
-276 -275 -274 0
276 -275 274 0
276 275 -274 0
277 60 0
-277 -60 0
-278 277 0
-278 117 0
278 -277 -117 0
279 275 0
-279 -275 0
-280 279 0
-280 274 0
280 -279 -274 0
281 -278 0
281 -280 0
-281 278 280 0
282 60 0
-282 -60 0
-283 117 0
-283 282 0
283 -117 -282 0
284 117 60 0
284 -117 -60 0
-284 -117 60 0
-284 117 -60 0
285 59 0
-285 -59 0
-286 114 0
-286 285 0
286 -114 -285 0
-287 286 0
-287 284 0
287 -286 -284 0
288 -283 0
288 -287 0
-288 283 287 0
289 114 59 0
289 -114 -59 0
-289 -114 59 0
-289 114 -59 0
-290 284 0
-290 289 0
290 -284 -289 0
-291 109 0
-291 290 0
291 -109 -290 0
292 -288 0
292 -291 0
-292 288 291 0
293 109 0
-293 -109 0
-294 290 0
-294 293 0
294 -290 -293 0
295 54 0
-295 -54 0
-296 104 0
-296 295 0
296 -104 -295 0
-297 296 0
-297 294 0
297 -296 -294 0
298 -292 0
298 -297 0
-298 292 297 0
299 104 54 0
299 -104 -54 0
-299 -104 54 0
-299 104 -54 0
-300 294 0
-300 299 0
300 -294 -299 0
301 50 0
-301 -50 0
-302 99 0
-302 301 0
302 -99 -301 0
-303 302 0
-303 300 0
303 -302 -300 0
304 -298 0
304 -303 0
-304 298 303 0
305 99 50 0
305 -99 -50 0
-305 -99 50 0
-305 99 -50 0
-306 300 0
-306 305 0
306 -300 -305 0
307 45 0
-307 -45 0
-308 94 0
-308 307 0
308 -94 -307 0
-309 308 0
-309 306 0
309 -308 -306 0
310 -304 0
310 -309 0
-310 304 309 0
311 94 45 0
311 -94 -45 0
-311 -94 45 0
-311 94 -45 0
-312 306 0
-312 311 0
312 -306 -311 0
313 40 0
-313 -40 0
-314 89 0
-314 313 0
314 -89 -313 0
-315 314 0
-315 312 0
315 -314 -312 0
316 -310 0
316 -315 0
-316 310 315 0
317 89 40 0
317 -89 -40 0
-317 -89 40 0
-317 89 -40 0
-318 312 0
-318 317 0
318 -312 -317 0
319 36 0
-319 -36 0
-320 84 0
-320 319 0
320 -84 -319 0
-321 320 0
-321 318 0
321 -320 -318 0
322 -316 0
322 -321 0
-322 316 321 0
323 84 36 0
323 -84 -36 0
-323 -84 36 0
-323 84 -36 0
-324 318 0
-324 323 0
324 -318 -323 0
325 29 0
-325 -29 0
-326 79 0
-326 325 0
326 -79 -325 0
-327 326 0
-327 324 0
327 -326 -324 0
328 -322 0
328 -327 0
-328 322 327 0
329 79 29 0
329 -79 -29 0
-329 -79 29 0
-329 79 -29 0
-330 324 0
-330 329 0
330 -324 -329 0
331 34 0
-331 -34 0
-332 74 0
-332 331 0
332 -74 -331 0
-333 332 0
-333 330 0
333 -332 -330 0
334 -328 0
334 -333 0
-334 328 333 0
335 74 34 0
335 -74 -34 0
-335 -74 34 0
-335 74 -34 0
-336 330 0
-336 335 0
336 -330 -335 0
-337 69 0
-337 336 0
337 -69 -336 0
338 -334 0
338 -337 0
-338 334 337 0
339 69 0
-339 -69 0
-340 336 0
-340 339 0
340 -336 -339 0
341 30 0
-341 -30 0
-342 64 0
-342 341 0
342 -64 -341 0
-343 342 0
-343 340 0
343 -342 -340 0
344 -338 0
344 -343 0
-344 338 343 0
345 64 30 0
345 -64 -30 0
-345 -64 30 0
-345 64 -30 0
-346 340 0
-346 345 0
346 -340 -345 0
347 53 0
-347 -53 0
-348 61 0
-348 347 0
348 -61 -347 0
-349 348 0
-349 346 0
349 -348 -346 0
350 -344 0
350 -349 0
-350 344 349 0
351 61 53 0
351 -61 -53 0
-351 -61 53 0
-351 61 -53 0
-352 346 0
-352 351 0
352 -346 -351 0
-353 350 0
-353 118 0
353 -350 -118 0
354 350 0
-354 -350 0
-355 354 0
-355 200 0
355 -354 -200 0
356 -353 0
356 -355 0
-356 353 355 0
-357 350 0
-357 123 0
357 -350 -123 0
358 350 0
-358 -350 0
-359 358 0
-359 205 0
359 -358 -205 0
360 -357 0
360 -359 0
-360 357 359 0
-361 350 0
-361 129 0
361 -350 -129 0
362 350 0
-362 -350 0
-363 362 0
-363 211 0
363 -362 -211 0
364 -361 0
364 -363 0
-364 361 363 0
-365 350 0
-365 134 0
365 -350 -134 0
366 350 0
-366 -350 0
-367 366 0
-367 216 0
367 -366 -216 0
368 -365 0
368 -367 0
-368 365 367 0
-369 350 0
-369 141 0
369 -350 -141 0
370 350 0
-370 -350 0
-371 370 0
-371 223 0
371 -370 -223 0
372 -369 0
372 -371 0
-372 369 371 0
-373 350 0
-373 148 0
373 -350 -148 0
374 350 0
-374 -350 0
-375 374 0
-375 230 0
375 -374 -230 0
376 -373 0
376 -375 0
-376 373 375 0
-377 350 0
-377 155 0
377 -350 -155 0
378 350 0
-378 -350 0
-379 378 0
-379 237 0
379 -378 -237 0
380 -377 0
380 -379 0
-380 377 379 0
-381 350 0
-381 162 0
381 -350 -162 0
382 350 0
-382 -350 0
-383 382 0
-383 244 0
383 -382 -244 0
384 -381 0
384 -383 0
-384 381 383 0
-385 350 0
-385 169 0
385 -350 -169 0
386 350 0
-386 -350 0
-387 386 0
-387 251 0
387 -386 -251 0
388 -385 0
388 -387 0
-388 385 387 0
-389 350 0
-389 176 0
389 -350 -176 0
390 350 0
-390 -350 0
-391 390 0
-391 258 0
391 -390 -258 0
392 -389 0
392 -391 0
-392 389 391 0
-393 350 0
-393 182 0
393 -350 -182 0
394 350 0
-394 -350 0
-395 394 0
-395 264 0
395 -394 -264 0
396 -393 0
396 -395 0
-396 393 395 0
-397 350 0
-397 187 0
397 -350 -187 0
398 350 0
-398 -350 0
-399 398 0
-399 269 0
399 -398 -269 0
400 -397 0
400 -399 0
-400 397 399 0
-401 350 0
-401 194 0
401 -350 -194 0
402 350 0
-402 -350 0
-403 402 0
-403 276 0
403 -402 -276 0
404 -401 0
404 -403 0
-404 401 403 0
405 -356 0
405 -360 0
-405 356 360 0
406 -405 0
406 -364 0
-406 405 364 0
407 -406 0
407 -368 0
-407 406 368 0
408 -407 0
408 -372 0
-408 407 372 0
409 -408 0
409 -376 0
-409 408 376 0
410 -409 0
410 -380 0
-410 409 380 0
411 -410 0
411 -384 0
-411 410 384 0
412 -411 0
412 -388 0
-412 411 388 0
413 -412 0
413 -392 0
-413 412 392 0
414 -413 0
414 -396 0
-414 413 396 0
415 -414 0
415 -400 0
-415 414 400 0
416 -415 0
416 -404 0
-416 415 404 0
-25 0
26 0
360 0
