p cnf 451 1307
-27 1 13 0
-27 -1 -13 0
27 -1 13 0
27 1 -13 0
-28 1 0
-28 13 0
28 -1 -13 0
-29 2 14 0
-29 -2 -14 0
29 -2 14 0
29 2 -14 0
-30 2 0
-30 14 0
30 -2 -14 0
31 -29 0
31 -28 0
-31 29 28 0
-32 3 15 0
-32 -3 -15 0
32 -3 15 0
32 3 -15 0
-33 3 0
-33 15 0
33 -3 -15 0
34 -32 0
34 -30 0
-34 32 30 0
-35 4 16 0
-35 -4 -16 0
35 -4 16 0
35 4 -16 0
-36 4 0
-36 16 0
36 -4 -16 0
-37 35 0
-37 33 0
37 -35 -33 0
-38 35 33 0
-38 -35 -33 0
38 -35 33 0
38 35 -33 0
39 -36 0
39 -37 0
-39 36 37 0
-40 5 17 0
-40 -5 -17 0
40 -5 17 0
40 5 -17 0
-41 5 0
-41 17 0
41 -5 -17 0
-42 40 0
-42 39 0
42 -40 -39 0
-43 40 39 0
-43 -40 -39 0
43 -40 39 0
43 40 -39 0
44 -41 0
44 -42 0
-44 41 42 0
-45 6 18 0
-45 -6 -18 0
45 -6 18 0
45 6 -18 0
-46 6 0
-46 18 0
46 -6 -18 0
-47 45 0
-47 44 0
47 -45 -44 0
-48 45 44 0
-48 -45 -44 0
48 -45 44 0
48 45 -44 0
49 -46 0
49 -47 0
-49 46 47 0
-50 7 19 0
-50 -7 -19 0
50 -7 19 0
50 7 -19 0
-51 7 0
-51 19 0
51 -7 -19 0
-52 50 0
-52 49 0
52 -50 -49 0
-53 50 49 0
-53 -50 -49 0
53 -50 49 0
53 50 -49 0
54 -51 0
54 -52 0
-54 51 52 0
-55 8 20 0
-55 -8 -20 0
55 -8 20 0
55 8 -20 0
-56 8 0
-56 20 0
56 -8 -20 0
-57 55 0
-57 54 0
57 -55 -54 0
-58 55 54 0
-58 -55 -54 0
58 -55 54 0
58 55 -54 0
59 -56 0
59 -57 0
-59 56 57 0
-60 9 21 0
-60 -9 -21 0
60 -9 21 0
60 9 -21 0
-61 9 0
-61 21 0
61 -9 -21 0
-62 60 0
-62 59 0
62 -60 -59 0
-63 60 59 0
-63 -60 -59 0
63 -60 59 0
63 60 -59 0
64 -61 0
64 -62 0
-64 61 62 0
-65 10 22 0
-65 -10 -22 0
65 -10 22 0
65 10 -22 0
-66 10 0
-66 22 0
66 -10 -22 0
-67 65 0
-67 64 0
67 -65 -64 0
-68 65 64 0
-68 -65 -64 0
68 -65 64 0
68 65 -64 0
69 -66 0
69 -67 0
-69 66 67 0
-70 11 23 0
-70 -11 -23 0
70 -11 23 0
70 11 -23 0
-71 11 0
-71 23 0
71 -11 -23 0
-72 70 0
-72 69 0
72 -70 -69 0
-73 70 69 0
-73 -70 -69 0
73 -70 69 0
73 70 -69 0
74 -71 0
74 -72 0
-74 71 72 0
-75 12 24 0
-75 -12 -24 0
75 -12 24 0
75 12 -24 0
-76 12 0
-76 24 0
76 -12 -24 0
-77 75 0
-77 74 0
77 -75 -74 0
-78 75 74 0
-78 -75 -74 0
78 -75 74 0
78 75 -74 0
79 -76 0
79 -77 0
-79 76 77 0
-80 1 13 0
-80 -1 -13 0
80 -1 13 0
80 1 -13 0
-81 1 0
-81 13 0
81 -1 -13 0
-82 2 14 0
-82 -2 -14 0
82 -2 14 0
82 2 -14 0
-83 82 81 0
-83 -82 -81 0
83 -82 81 0
83 82 -81 0
-84 2 0
-84 14 0
84 -2 -14 0
-85 81 0
-85 82 0
85 -81 -82 0
86 -84 0
86 -85 0
-86 84 85 0
-87 3 15 0
-87 -3 -15 0
87 -3 15 0
87 3 -15 0
-88 87 86 0
-88 -87 -86 0
88 -87 86 0
88 87 -86 0
-89 3 0
-89 15 0
89 -3 -15 0
-90 86 0
-90 87 0
90 -86 -87 0
91 -89 0
91 -90 0
-91 89 90 0
-92 4 16 0
-92 -4 -16 0
92 -4 16 0
92 4 -16 0
-93 92 91 0
-93 -92 -91 0
93 -92 91 0
93 92 -91 0
-94 4 0
-94 16 0
94 -4 -16 0
-95 91 0
-95 92 0
95 -91 -92 0
96 -94 0
96 -95 0
-96 94 95 0
-97 5 17 0
-97 -5 -17 0
97 -5 17 0
97 5 -17 0
-98 97 96 0
-98 -97 -96 0
98 -97 96 0
98 97 -96 0
-99 5 0
-99 17 0
99 -5 -17 0
-100 96 0
-100 97 0
100 -96 -97 0
101 -99 0
101 -100 0
-101 99 100 0
-102 6 18 0
-102 -6 -18 0
102 -6 18 0
102 6 -18 0
-103 102 101 0
-103 -102 -101 0
103 -102 101 0
103 102 -101 0
-104 6 0
-104 18 0
104 -6 -18 0
-105 101 0
-105 102 0
105 -101 -102 0
106 -104 0
106 -105 0
-106 104 105 0
-107 7 19 0
-107 -7 -19 0
107 -7 19 0
107 7 -19 0
-108 107 106 0
-108 -107 -106 0
108 -107 106 0
108 107 -106 0
-109 7 0
-109 19 0
109 -7 -19 0
-110 106 0
-110 107 0
110 -106 -107 0
111 -109 0
111 -110 0
-111 109 110 0
-112 8 20 0
-112 -8 -20 0
112 -8 20 0
112 8 -20 0
-113 112 111 0
-113 -112 -111 0
113 -112 111 0
113 112 -111 0
-114 8 0
-114 20 0
114 -8 -20 0
-115 111 0
-115 112 0
115 -111 -112 0
116 -114 0
116 -115 0
-116 114 115 0
-117 9 21 0
-117 -9 -21 0
117 -9 21 0
117 9 -21 0
-118 117 116 0
-118 -117 -116 0
118 -117 116 0
118 117 -116 0
-119 9 0
-119 21 0
119 -9 -21 0
-120 116 0
-120 117 0
120 -116 -117 0
121 -119 0
121 -120 0
-121 119 120 0
-122 10 22 0
-122 -10 -22 0
122 -10 22 0
122 10 -22 0
-123 122 121 0
-123 -122 -121 0
123 -122 121 0
123 122 -121 0
-124 10 0
-124 22 0
124 -10 -22 0
-125 121 0
-125 122 0
125 -121 -122 0
126 -124 0
126 -125 0
-126 124 125 0
-127 11 23 0
-127 -11 -23 0
127 -11 23 0
127 11 -23 0
-128 127 126 0
-128 -127 -126 0
128 -127 126 0
128 127 -126 0
-129 11 0
-129 23 0
129 -11 -23 0
-130 126 0
-130 127 0
130 -126 -127 0
131 -129 0
131 -130 0
-131 129 130 0
-132 12 24 0
-132 -12 -24 0
132 -12 24 0
132 12 -24 0
-133 132 131 0
-133 -132 -131 0
133 -132 131 0
133 132 -131 0
-134 12 0
-134 24 0
134 -12 -24 0
-135 131 0
-135 132 0
135 -131 -132 0
136 -134 0
136 -135 0
-136 134 135 0
-137 80 27 0
-137 -80 -27 0
137 -80 27 0
137 80 -27 0
138 80 0
-138 -80 0
-139 138 0
-139 27 0
139 -138 -27 0
140 137 0
-140 -137 0
-141 83 31 0
-141 -83 -31 0
141 -83 31 0
141 83 -31 0
-142 141 139 0
-142 -141 -139 0
142 -141 139 0
142 141 -139 0
143 83 0
-143 -83 0
-144 143 0
-144 31 0
144 -143 -31 0
145 141 0
-145 -141 0
-146 145 0
-146 139 0
146 -145 -139 0
147 -144 0
147 -146 0
-147 144 146 0
-148 88 34 0
-148 -88 -34 0
148 -88 34 0
148 88 -34 0
-149 148 147 0
-149 -148 -147 0
149 -148 147 0
149 148 -147 0
150 88 0
-150 -88 0
-151 150 0
-151 34 0
151 -150 -34 0
152 148 0
-152 -148 0
-153 152 0
-153 147 0
153 -152 -147 0
154 -151 0
154 -153 0
-154 151 153 0
-155 93 38 0
-155 -93 -38 0
155 -93 38 0
155 93 -38 0
-156 155 154 0
-156 -155 -154 0
156 -155 154 0
156 155 -154 0
157 93 0
-157 -93 0
-158 157 0
-158 38 0
158 -157 -38 0
159 155 0
-159 -155 0
-160 159 0
-160 154 0
160 -159 -154 0
161 -158 0
161 -160 0
-161 158 160 0
-162 98 43 0
-162 -98 -43 0
162 -98 43 0
162 98 -43 0
-163 162 161 0
-163 -162 -161 0
163 -162 161 0
163 162 -161 0
164 98 0
-164 -98 0
-165 164 0
-165 43 0
165 -164 -43 0
166 162 0
-166 -162 0
-167 166 0
-167 161 0
167 -166 -161 0
168 -165 0
168 -167 0
-168 165 167 0
-169 103 48 0
-169 -103 -48 0
169 -103 48 0
169 103 -48 0
-170 169 168 0
-170 -169 -168 0
170 -169 168 0
170 169 -168 0
171 103 0
-171 -103 0
-172 171 0
-172 48 0
172 -171 -48 0
173 169 0
-173 -169 0
-174 173 0
-174 168 0
174 -173 -168 0
175 -172 0
175 -174 0
-175 172 174 0
-176 108 53 0
-176 -108 -53 0
176 -108 53 0
176 108 -53 0
-177 176 175 0
-177 -176 -175 0
177 -176 175 0
177 176 -175 0
178 108 0
-178 -108 0
-179 178 0
-179 53 0
179 -178 -53 0
180 176 0
-180 -176 0
-181 180 0
-181 175 0
181 -180 -175 0
182 -179 0
182 -181 0
-182 179 181 0
-183 113 58 0
-183 -113 -58 0
183 -113 58 0
183 113 -58 0
-184 183 182 0
-184 -183 -182 0
184 -183 182 0
184 183 -182 0
185 113 0
-185 -113 0
-186 185 0
-186 58 0
186 -185 -58 0
187 183 0
-187 -183 0
-188 187 0
-188 182 0
188 -187 -182 0
189 -186 0
189 -188 0
-189 186 188 0
-190 118 63 0
-190 -118 -63 0
190 -118 63 0
190 118 -63 0
-191 190 189 0
-191 -190 -189 0
191 -190 189 0
191 190 -189 0
192 118 0
-192 -118 0
-193 192 0
-193 63 0
193 -192 -63 0
194 190 0
-194 -190 0
-195 194 0
-195 189 0
195 -194 -189 0
196 -193 0
196 -195 0
-196 193 195 0
-197 123 68 0
-197 -123 -68 0
197 -123 68 0
197 123 -68 0
-198 197 196 0
-198 -197 -196 0
198 -197 196 0
198 197 -196 0
199 123 0
-199 -123 0
-200 199 0
-200 68 0
200 -199 -68 0
201 197 0
-201 -197 0
-202 201 0
-202 196 0
202 -201 -196 0
203 -200 0
203 -202 0
-203 200 202 0
-204 128 73 0
-204 -128 -73 0
204 -128 73 0
204 128 -73 0
-205 204 203 0
-205 -204 -203 0
205 -204 203 0
205 204 -203 0
206 128 0
-206 -128 0
-207 206 0
-207 73 0
207 -206 -73 0
208 204 0
-208 -204 0
-209 208 0
-209 203 0
209 -208 -203 0
210 -207 0
210 -209 0
-210 207 209 0
-211 133 78 0
-211 -133 -78 0
211 -133 78 0
211 133 -78 0
-212 211 210 0
-212 -211 -210 0
212 -211 210 0
212 211 -210 0
213 133 0
-213 -133 0
-214 213 0
-214 78 0
214 -213 -78 0
215 211 0
-215 -211 0
-216 215 0
-216 210 0
216 -215 -210 0
217 -214 0
217 -216 0
-217 214 216 0
-218 136 79 0
-218 -136 -79 0
218 -136 79 0
218 136 -79 0
-219 218 217 0
-219 -218 -217 0
219 -218 217 0
219 218 -217 0
220 136 0
-220 -136 0
-221 220 0
-221 79 0
221 -220 -79 0
222 218 0
-222 -218 0
-223 222 0
-223 217 0
223 -222 -217 0
224 -221 0
224 -223 0
-224 221 223 0
-225 27 80 0
-225 -27 -80 0
225 -27 80 0
225 27 -80 0
226 27 0
-226 -27 0
-227 226 0
-227 80 0
227 -226 -80 0
228 225 0
-228 -225 0
-229 31 83 0
-229 -31 -83 0
229 -31 83 0
229 31 -83 0
-230 229 227 0
-230 -229 -227 0
230 -229 227 0
230 229 -227 0
231 31 0
-231 -31 0
-232 231 0
-232 83 0
232 -231 -83 0
233 229 0
-233 -229 0
-234 233 0
-234 227 0
234 -233 -227 0
235 -232 0
235 -234 0
-235 232 234 0
-236 34 88 0
-236 -34 -88 0
236 -34 88 0
236 34 -88 0
-237 236 235 0
-237 -236 -235 0
237 -236 235 0
237 236 -235 0
238 34 0
-238 -34 0
-239 238 0
-239 88 0
239 -238 -88 0
240 236 0
-240 -236 0
-241 240 0
-241 235 0
241 -240 -235 0
242 -239 0
242 -241 0
-242 239 241 0
-243 38 93 0
-243 -38 -93 0
243 -38 93 0
243 38 -93 0
-244 243 242 0
-244 -243 -242 0
244 -243 242 0
244 243 -242 0
245 38 0
-245 -38 0
-246 245 0
-246 93 0
246 -245 -93 0
247 243 0
-247 -243 0
-248 247 0
-248 242 0
248 -247 -242 0
249 -246 0
249 -248 0
-249 246 248 0
-250 43 98 0
-250 -43 -98 0
250 -43 98 0
250 43 -98 0
-251 250 249 0
-251 -250 -249 0
251 -250 249 0
251 250 -249 0
252 43 0
-252 -43 0
-253 252 0
-253 98 0
253 -252 -98 0
254 250 0
-254 -250 0
-255 254 0
-255 249 0
255 -254 -249 0
256 -253 0
256 -255 0
-256 253 255 0
-257 48 103 0
-257 -48 -103 0
257 -48 103 0
257 48 -103 0
-258 257 256 0
-258 -257 -256 0
258 -257 256 0
258 257 -256 0
259 48 0
-259 -48 0
-260 259 0
-260 103 0
260 -259 -103 0
261 257 0
-261 -257 0
-262 261 0
-262 256 0
262 -261 -256 0
263 -260 0
263 -262 0
-263 260 262 0
-264 53 108 0
-264 -53 -108 0
264 -53 108 0
264 53 -108 0
-265 264 263 0
-265 -264 -263 0
265 -264 263 0
265 264 -263 0
266 53 0
-266 -53 0
-267 266 0
-267 108 0
267 -266 -108 0
268 264 0
-268 -264 0
-269 268 0
-269 263 0
269 -268 -263 0
270 -267 0
270 -269 0
-270 267 269 0
-271 58 113 0
-271 -58 -113 0
271 -58 113 0
271 58 -113 0
-272 271 270 0
-272 -271 -270 0
272 -271 270 0
272 271 -270 0
273 58 0
-273 -58 0
-274 273 0
-274 113 0
274 -273 -113 0
275 271 0
-275 -271 0
-276 275 0
-276 270 0
276 -275 -270 0
277 -274 0
277 -276 0
-277 274 276 0
-278 63 118 0
-278 -63 -118 0
278 -63 118 0
278 63 -118 0
-279 278 277 0
-279 -278 -277 0
279 -278 277 0
279 278 -277 0
280 63 0
-280 -63 0
-281 280 0
-281 118 0
281 -280 -118 0
282 278 0
-282 -278 0
-283 282 0
-283 277 0
283 -282 -277 0
284 -281 0
284 -283 0
-284 281 283 0
-285 68 123 0
-285 -68 -123 0
285 -68 123 0
285 68 -123 0
-286 285 284 0
-286 -285 -284 0
286 -285 284 0
286 285 -284 0
287 68 0
-287 -68 0
-288 287 0
-288 123 0
288 -287 -123 0
289 285 0
-289 -285 0
-290 289 0
-290 284 0
290 -289 -284 0
291 -288 0
291 -290 0
-291 288 290 0
-292 73 128 0
-292 -73 -128 0
292 -73 128 0
292 73 -128 0
-293 292 291 0
-293 -292 -291 0
293 -292 291 0
293 292 -291 0
294 73 0
-294 -73 0
-295 294 0
-295 128 0
295 -294 -128 0
296 292 0
-296 -292 0
-297 296 0
-297 291 0
297 -296 -291 0
298 -295 0
298 -297 0
-298 295 297 0
-299 78 133 0
-299 -78 -133 0
299 -78 133 0
299 78 -133 0
-300 299 298 0
-300 -299 -298 0
300 -299 298 0
300 299 -298 0
301 78 0
-301 -78 0
-302 301 0
-302 133 0
302 -301 -133 0
303 299 0
-303 -299 0
-304 303 0
-304 298 0
304 -303 -298 0
305 -302 0
305 -304 0
-305 302 304 0
-306 79 136 0
-306 -79 -136 0
306 -79 136 0
306 79 -136 0
-307 306 305 0
-307 -306 -305 0
307 -306 305 0
307 306 -305 0
308 79 0
-308 -79 0
-309 308 0
-309 136 0
309 -308 -136 0
310 306 0
-310 -306 0
-311 310 0
-311 305 0
311 -310 -305 0
312 -309 0
312 -311 0
-312 309 311 0
313 79 0
-313 -79 0
-314 136 0
-314 313 0
314 -136 -313 0
315 136 79 0
315 -136 -79 0
-315 -136 79 0
-315 136 -79 0
316 78 0
-316 -78 0
-317 133 0
-317 316 0
317 -133 -316 0
-318 317 0
-318 315 0
318 -317 -315 0
319 -314 0
319 -318 0
-319 314 318 0
320 133 78 0
320 -133 -78 0
-320 -133 78 0
-320 133 -78 0
-321 315 0
-321 320 0
321 -315 -320 0
322 73 0
-322 -73 0
-323 128 0
-323 322 0
323 -128 -322 0
-324 323 0
-324 321 0
324 -323 -321 0
325 -319 0
325 -324 0
-325 319 324 0
326 128 73 0
326 -128 -73 0
-326 -128 73 0
-326 128 -73 0
-327 321 0
-327 326 0
327 -321 -326 0
328 68 0
-328 -68 0
-329 123 0
-329 328 0
329 -123 -328 0
-330 329 0
-330 327 0
330 -329 -327 0
331 -325 0
331 -330 0
-331 325 330 0
332 123 68 0
332 -123 -68 0
-332 -123 68 0
-332 123 -68 0
-333 327 0
-333 332 0
333 -327 -332 0
334 63 0
-334 -63 0
-335 118 0
-335 334 0
335 -118 -334 0
-336 335 0
-336 333 0
336 -335 -333 0
337 -331 0
337 -336 0
-337 331 336 0
338 118 63 0
338 -118 -63 0
-338 -118 63 0
-338 118 -63 0
-339 333 0
-339 338 0
339 -333 -338 0
340 58 0
-340 -58 0
-341 113 0
-341 340 0
341 -113 -340 0
-342 341 0
-342 339 0
342 -341 -339 0
343 -337 0
343 -342 0
-343 337 342 0
344 113 58 0
344 -113 -58 0
-344 -113 58 0
-344 113 -58 0
-345 339 0
-345 344 0
345 -339 -344 0
346 53 0
-346 -53 0
-347 108 0
-347 346 0
347 -108 -346 0
-348 347 0
-348 345 0
348 -347 -345 0
349 -343 0
349 -348 0
-349 343 348 0
350 108 53 0
350 -108 -53 0
-350 -108 53 0
-350 108 -53 0
-351 345 0
-351 350 0
351 -345 -350 0
352 48 0
-352 -48 0
-353 103 0
-353 352 0
353 -103 -352 0
-354 353 0
-354 351 0
354 -353 -351 0
355 -349 0
355 -354 0
-355 349 354 0
356 103 48 0
356 -103 -48 0
-356 -103 48 0
-356 103 -48 0
-357 351 0
-357 356 0
357 -351 -356 0
358 43 0
-358 -43 0
-359 98 0
-359 358 0
359 -98 -358 0
-360 359 0
-360 357 0
360 -359 -357 0
361 -355 0
361 -360 0
-361 355 360 0
362 98 43 0
362 -98 -43 0
-362 -98 43 0
-362 98 -43 0
-363 357 0
-363 362 0
363 -357 -362 0
364 38 0
-364 -38 0
-365 93 0
-365 364 0
365 -93 -364 0
-366 365 0
-366 363 0
366 -365 -363 0
367 -361 0
367 -366 0
-367 361 366 0
368 93 38 0
368 -93 -38 0
-368 -93 38 0
-368 93 -38 0
-369 363 0
-369 368 0
369 -363 -368 0
370 34 0
-370 -34 0
-371 88 0
-371 370 0
371 -88 -370 0
-372 371 0
-372 369 0
372 -371 -369 0
373 -367 0
373 -372 0
-373 367 372 0
374 88 34 0
374 -88 -34 0
-374 -88 34 0
-374 88 -34 0
-375 369 0
-375 374 0
375 -369 -374 0
376 31 0
-376 -31 0
-377 83 0
-377 376 0
377 -83 -376 0
-378 377 0
-378 375 0
378 -377 -375 0
379 -373 0
379 -378 0
-379 373 378 0
380 83 31 0
380 -83 -31 0
-380 -83 31 0
-380 83 -31 0
-381 375 0
-381 380 0
381 -375 -380 0
382 27 0
-382 -27 0
-383 80 0
-383 382 0
383 -80 -382 0
-384 383 0
-384 381 0
384 -383 -381 0
385 -379 0
385 -384 0
-385 379 384 0
386 80 27 0
386 -80 -27 0
-386 -80 27 0
-386 80 -27 0
-387 381 0
-387 386 0
387 -381 -386 0
-388 385 0
-388 137 0
388 -385 -137 0
389 385 0
-389 -385 0
-390 389 0
-390 225 0
390 -389 -225 0
391 -388 0
391 -390 0
-391 388 390 0
-392 385 0
-392 142 0
392 -385 -142 0
393 385 0
-393 -385 0
-394 393 0
-394 230 0
394 -393 -230 0
395 -392 0
395 -394 0
-395 392 394 0
-396 385 0
-396 149 0
396 -385 -149 0
397 385 0
-397 -385 0
-398 397 0
-398 237 0
398 -397 -237 0
399 -396 0
399 -398 0
-399 396 398 0
-400 385 0
-400 156 0
400 -385 -156 0
401 385 0
-401 -385 0
-402 401 0
-402 244 0
402 -401 -244 0
403 -400 0
403 -402 0
-403 400 402 0
-404 385 0
-404 163 0
404 -385 -163 0
405 385 0
-405 -385 0
-406 405 0
-406 251 0
406 -405 -251 0
407 -404 0
407 -406 0
-407 404 406 0
-408 385 0
-408 170 0
408 -385 -170 0
409 385 0
-409 -385 0
-410 409 0
-410 258 0
410 -409 -258 0
411 -408 0
411 -410 0
-411 408 410 0
-412 385 0
-412 177 0
412 -385 -177 0
413 385 0
-413 -385 0
-414 413 0
-414 265 0
414 -413 -265 0
415 -412 0
415 -414 0
-415 412 414 0
-416 385 0
-416 184 0
416 -385 -184 0
417 385 0
-417 -385 0
-418 417 0
-418 272 0
418 -417 -272 0
419 -416 0
419 -418 0
-419 416 418 0
-420 385 0
-420 191 0
420 -385 -191 0
421 385 0
-421 -385 0
-422 421 0
-422 279 0
422 -421 -279 0
423 -420 0
423 -422 0
-423 420 422 0
-424 385 0
-424 198 0
424 -385 -198 0
425 385 0
-425 -385 0
-426 425 0
-426 286 0
426 -425 -286 0
427 -424 0
427 -426 0
-427 424 426 0
-428 385 0
-428 205 0
428 -385 -205 0
429 385 0
-429 -385 0
-430 429 0
-430 293 0
430 -429 -293 0
431 -428 0
431 -430 0
-431 428 430 0
-432 385 0
-432 212 0
432 -385 -212 0
433 385 0
-433 -385 0
-434 433 0
-434 300 0
434 -433 -300 0
435 -432 0
435 -434 0
-435 432 434 0
-436 385 0
-436 219 0
436 -385 -219 0
437 385 0
-437 -385 0
-438 437 0
-438 307 0
438 -437 -307 0
439 -436 0
439 -438 0
-439 436 438 0
440 -391 0
440 -395 0
-440 391 395 0
441 -440 0
441 -399 0
-441 440 399 0
442 -441 0
442 -403 0
-442 441 403 0
443 -442 0
443 -407 0
-443 442 407 0
444 -443 0
444 -411 0
-444 443 411 0
445 -444 0
445 -415 0
-445 444 415 0
446 -445 0
446 -419 0
-446 445 419 0
447 -446 0
447 -423 0
-447 446 423 0
448 -447 0
448 -427 0
-448 447 427 0
449 -448 0
449 -431 0
-449 448 431 0
450 -449 0
450 -435 0
-450 449 435 0
451 -450 0
451 -439 0
-451 450 439 0
-25 0
26 0
403 0
