p cnf 440 1270
-27 1 13 0
-27 -1 -13 0
27 -1 13 0
27 1 -13 0
-28 1 0
-28 13 0
28 -1 -13 0
-29 2 14 0
-29 -2 -14 0
29 -2 14 0
29 2 -14 0
-30 2 0
-30 14 0
30 -2 -14 0
31 -29 0
31 -28 0
-31 29 28 0
-32 3 15 0
-32 -3 -15 0
32 -3 15 0
32 3 -15 0
-33 3 0
-33 15 0
33 -3 -15 0
-34 32 0
-34 30 0
34 -32 -30 0
-35 32 30 0
-35 -32 -30 0
35 -32 30 0
35 32 -30 0
36 -33 0
36 -34 0
-36 33 34 0
-37 4 16 0
-37 -4 -16 0
37 -4 16 0
37 4 -16 0
-38 37 36 0
-38 -37 -36 0
38 -37 36 0
38 37 -36 0
39 -17 0
39 -4 0
-39 17 4 0
40 -5 0
40 -39 0
-40 5 39 0
41 -6 0
41 -18 0
-41 6 18 0
-42 7 19 0
-42 -7 -19 0
42 -7 19 0
42 7 -19 0
-43 7 0
-43 19 0
43 -7 -19 0
-44 8 20 0
-44 -8 -20 0
44 -8 20 0
44 8 -20 0
-45 8 0
-45 20 0
45 -8 -20 0
-46 44 0
-46 43 0
46 -44 -43 0
-47 44 43 0
-47 -44 -43 0
47 -44 43 0
47 44 -43 0
48 -45 0
48 -46 0
-48 45 46 0
-49 9 21 0
-49 -9 -21 0
49 -9 21 0
49 9 -21 0
-50 9 0
-50 21 0
50 -9 -21 0
-51 49 0
-51 48 0
51 -49 -48 0
-52 49 48 0
-52 -49 -48 0
52 -49 48 0
52 49 -48 0
53 -50 0
53 -51 0
-53 50 51 0
-54 10 22 0
-54 -10 -22 0
54 -10 22 0
54 10 -22 0
-55 10 0
-55 22 0
55 -10 -22 0
-56 54 0
-56 53 0
56 -54 -53 0
-57 54 53 0
-57 -54 -53 0
57 -54 53 0
57 54 -53 0
58 -55 0
58 -56 0
-58 55 56 0
-59 11 23 0
-59 -11 -23 0
59 -11 23 0
59 11 -23 0
-60 11 0
-60 23 0
60 -11 -23 0
-61 59 0
-61 58 0
61 -59 -58 0
-62 59 58 0
-62 -59 -58 0
62 -59 58 0
62 59 -58 0
63 -60 0
63 -61 0
-63 60 61 0
-64 12 24 0
-64 -12 -24 0
64 -12 24 0
64 12 -24 0
-65 12 0
-65 24 0
65 -12 -24 0
-66 64 0
-66 63 0
66 -64 -63 0
-67 64 63 0
-67 -64 -63 0
67 -64 63 0
67 64 -63 0
68 -65 0
68 -66 0
-68 65 66 0
-69 1 13 0
-69 -1 -13 0
69 -1 13 0
69 1 -13 0
-70 1 0
-70 13 0
70 -1 -13 0
-71 2 14 0
-71 -2 -14 0
71 -2 14 0
71 2 -14 0
-72 71 70 0
-72 -71 -70 0
72 -71 70 0
72 71 -70 0
-73 2 0
-73 14 0
73 -2 -14 0
-74 70 0
-74 71 0
74 -70 -71 0
75 -73 0
75 -74 0
-75 73 74 0
-76 3 15 0
-76 -3 -15 0
76 -3 15 0
76 3 -15 0
-77 76 75 0
-77 -76 -75 0
77 -76 75 0
77 76 -75 0
-78 3 0
-78 15 0
78 -3 -15 0
-79 75 0
-79 76 0
79 -75 -76 0
80 -78 0
80 -79 0
-80 78 79 0
-81 4 16 0
-81 -4 -16 0
81 -4 16 0
81 4 -16 0
-82 81 80 0
-82 -81 -80 0
82 -81 80 0
82 81 -80 0
-83 4 0
-83 16 0
83 -4 -16 0
-84 80 0
-84 81 0
84 -80 -81 0
85 -83 0
85 -84 0
-85 83 84 0
-86 5 17 0
-86 -5 -17 0
86 -5 17 0
86 5 -17 0
-87 86 85 0
-87 -86 -85 0
87 -86 85 0
87 86 -85 0
-88 5 0
-88 17 0
88 -5 -17 0
-89 85 0
-89 86 0
89 -85 -86 0
90 -88 0
90 -89 0
-90 88 89 0
-91 6 18 0
-91 -6 -18 0
91 -6 18 0
91 6 -18 0
-92 91 90 0
-92 -91 -90 0
92 -91 90 0
92 91 -90 0
-93 6 0
-93 18 0
93 -6 -18 0
-94 90 0
-94 91 0
94 -90 -91 0
95 -93 0
95 -94 0
-95 93 94 0
-96 7 19 0
-96 -7 -19 0
96 -7 19 0
96 7 -19 0
-97 96 95 0
-97 -96 -95 0
97 -96 95 0
97 96 -95 0
-98 7 0
-98 19 0
98 -7 -19 0
-99 95 0
-99 96 0
99 -95 -96 0
100 -98 0
100 -99 0
-100 98 99 0
-101 8 20 0
-101 -8 -20 0
101 -8 20 0
101 8 -20 0
-102 101 100 0
-102 -101 -100 0
102 -101 100 0
102 101 -100 0
-103 8 0
-103 20 0
103 -8 -20 0
-104 100 0
-104 101 0
104 -100 -101 0
105 -103 0
105 -104 0
-105 103 104 0
-106 9 21 0
-106 -9 -21 0
106 -9 21 0
106 9 -21 0
-107 106 105 0
-107 -106 -105 0
107 -106 105 0
107 106 -105 0
-108 9 0
-108 21 0
108 -9 -21 0
-109 105 0
-109 106 0
109 -105 -106 0
110 -108 0
110 -109 0
-110 108 109 0
-111 10 22 0
-111 -10 -22 0
111 -10 22 0
111 10 -22 0
-112 111 110 0
-112 -111 -110 0
112 -111 110 0
112 111 -110 0
-113 10 0
-113 22 0
113 -10 -22 0
-114 110 0
-114 111 0
114 -110 -111 0
115 -113 0
115 -114 0
-115 113 114 0
-116 11 23 0
-116 -11 -23 0
116 -11 23 0
116 11 -23 0
-117 116 115 0
-117 -116 -115 0
117 -116 115 0
117 116 -115 0
-118 11 0
-118 23 0
118 -11 -23 0
-119 115 0
-119 116 0
119 -115 -116 0
120 -118 0
120 -119 0
-120 118 119 0
-121 12 24 0
-121 -12 -24 0
121 -12 24 0
121 12 -24 0
-122 121 120 0
-122 -121 -120 0
122 -121 120 0
122 121 -120 0
-123 12 0
-123 24 0
123 -12 -24 0
-124 120 0
-124 121 0
124 -120 -121 0
125 -123 0
125 -124 0
-125 123 124 0
-126 69 27 0
-126 -69 -27 0
126 -69 27 0
126 69 -27 0
127 69 0
-127 -69 0
-128 127 0
-128 27 0
128 -127 -27 0
129 126 0
-129 -126 0
-130 72 31 0
-130 -72 -31 0
130 -72 31 0
130 72 -31 0
-131 130 128 0
-131 -130 -128 0
131 -130 128 0
131 130 -128 0
132 72 0
-132 -72 0
-133 132 0
-133 31 0
133 -132 -31 0
134 130 0
-134 -130 0
-135 134 0
-135 128 0
135 -134 -128 0
136 -133 0
136 -135 0
-136 133 135 0
-137 77 35 0
-137 -77 -35 0
137 -77 35 0
137 77 -35 0
-138 137 136 0
-138 -137 -136 0
138 -137 136 0
138 137 -136 0
139 77 0
-139 -77 0
-140 139 0
-140 35 0
140 -139 -35 0
141 137 0
-141 -137 0
-142 141 0
-142 136 0
142 -141 -136 0
143 -140 0
143 -142 0
-143 140 142 0
-144 82 38 0
-144 -82 -38 0
144 -82 38 0
144 82 -38 0
-145 144 143 0
-145 -144 -143 0
145 -144 143 0
145 144 -143 0
146 82 0
-146 -82 0
-147 146 0
-147 38 0
147 -146 -38 0
148 144 0
-148 -144 0
-149 148 0
-149 143 0
149 -148 -143 0
150 -147 0
150 -149 0
-150 147 149 0
-151 87 40 0
-151 -87 -40 0
151 -87 40 0
151 87 -40 0
-152 151 150 0
-152 -151 -150 0
152 -151 150 0
152 151 -150 0
153 87 0
-153 -87 0
-154 153 0
-154 40 0
154 -153 -40 0
155 151 0
-155 -151 0
-156 155 0
-156 150 0
156 -155 -150 0
157 -154 0
157 -156 0
-157 154 156 0
-158 92 41 0
-158 -92 -41 0
158 -92 41 0
158 92 -41 0
-159 158 157 0
-159 -158 -157 0
159 -158 157 0
159 158 -157 0
160 92 0
-160 -92 0
-161 160 0
-161 41 0
161 -160 -41 0
162 158 0
-162 -158 0
-163 162 0
-163 157 0
163 -162 -157 0
164 -161 0
164 -163 0
-164 161 163 0
-165 97 42 0
-165 -97 -42 0
165 -97 42 0
165 97 -42 0
-166 165 164 0
-166 -165 -164 0
166 -165 164 0
166 165 -164 0
167 97 0
-167 -97 0
-168 167 0
-168 42 0
168 -167 -42 0
169 165 0
-169 -165 0
-170 169 0
-170 164 0
170 -169 -164 0
171 -168 0
171 -170 0
-171 168 170 0
-172 102 47 0
-172 -102 -47 0
172 -102 47 0
172 102 -47 0
-173 172 171 0
-173 -172 -171 0
173 -172 171 0
173 172 -171 0
174 102 0
-174 -102 0
-175 174 0
-175 47 0
175 -174 -47 0
176 172 0
-176 -172 0
-177 176 0
-177 171 0
177 -176 -171 0
178 -175 0
178 -177 0
-178 175 177 0
-179 107 52 0
-179 -107 -52 0
179 -107 52 0
179 107 -52 0
-180 179 178 0
-180 -179 -178 0
180 -179 178 0
180 179 -178 0
181 107 0
-181 -107 0
-182 181 0
-182 52 0
182 -181 -52 0
183 179 0
-183 -179 0
-184 183 0
-184 178 0
184 -183 -178 0
185 -182 0
185 -184 0
-185 182 184 0
-186 112 57 0
-186 -112 -57 0
186 -112 57 0
186 112 -57 0
-187 186 185 0
-187 -186 -185 0
187 -186 185 0
187 186 -185 0
188 112 0
-188 -112 0
-189 188 0
-189 57 0
189 -188 -57 0
190 186 0
-190 -186 0
-191 190 0
-191 185 0
191 -190 -185 0
192 -189 0
192 -191 0
-192 189 191 0
-193 117 62 0
-193 -117 -62 0
193 -117 62 0
193 117 -62 0
-194 193 192 0
-194 -193 -192 0
194 -193 192 0
194 193 -192 0
195 117 0
-195 -117 0
-196 195 0
-196 62 0
196 -195 -62 0
197 193 0
-197 -193 0
-198 197 0
-198 192 0
198 -197 -192 0
199 -196 0
199 -198 0
-199 196 198 0
-200 122 67 0
-200 -122 -67 0
200 -122 67 0
200 122 -67 0
-201 200 199 0
-201 -200 -199 0
201 -200 199 0
201 200 -199 0
202 122 0
-202 -122 0
-203 202 0
-203 67 0
203 -202 -67 0
204 200 0
-204 -200 0
-205 204 0
-205 199 0
205 -204 -199 0
206 -203 0
206 -205 0
-206 203 205 0
-207 125 68 0
-207 -125 -68 0
207 -125 68 0
207 125 -68 0
-208 207 206 0
-208 -207 -206 0
208 -207 206 0
208 207 -206 0
209 125 0
-209 -125 0
-210 209 0
-210 68 0
210 -209 -68 0
211 207 0
-211 -207 0
-212 211 0
-212 206 0
212 -211 -206 0
213 -210 0
213 -212 0
-213 210 212 0
-214 27 69 0
-214 -27 -69 0
214 -27 69 0
214 27 -69 0
215 27 0
-215 -27 0
-216 215 0
-216 69 0
216 -215 -69 0
217 214 0
-217 -214 0
-218 31 72 0
-218 -31 -72 0
218 -31 72 0
218 31 -72 0
-219 218 216 0
-219 -218 -216 0
219 -218 216 0
219 218 -216 0
220 31 0
-220 -31 0
-221 220 0
-221 72 0
221 -220 -72 0
222 218 0
-222 -218 0
-223 222 0
-223 216 0
223 -222 -216 0
224 -221 0
224 -223 0
-224 221 223 0
-225 35 77 0
-225 -35 -77 0
225 -35 77 0
225 35 -77 0
-226 225 224 0
-226 -225 -224 0
226 -225 224 0
226 225 -224 0
227 35 0
-227 -35 0
-228 227 0
-228 77 0
228 -227 -77 0
229 225 0
-229 -225 0
-230 229 0
-230 224 0
230 -229 -224 0
231 -228 0
231 -230 0
-231 228 230 0
-232 38 82 0
-232 -38 -82 0
232 -38 82 0
232 38 -82 0
-233 232 231 0
-233 -232 -231 0
233 -232 231 0
233 232 -231 0
234 38 0
-234 -38 0
-235 234 0
-235 82 0
235 -234 -82 0
236 232 0
-236 -232 0
-237 236 0
-237 231 0
237 -236 -231 0
238 -235 0
238 -237 0
-238 235 237 0
-239 40 87 0
-239 -40 -87 0
239 -40 87 0
239 40 -87 0
-240 239 238 0
-240 -239 -238 0
240 -239 238 0
240 239 -238 0
241 40 0
-241 -40 0
-242 241 0
-242 87 0
242 -241 -87 0
243 239 0
-243 -239 0
-244 243 0
-244 238 0
244 -243 -238 0
245 -242 0
245 -244 0
-245 242 244 0
-246 41 92 0
-246 -41 -92 0
246 -41 92 0
246 41 -92 0
-247 246 245 0
-247 -246 -245 0
247 -246 245 0
247 246 -245 0
248 41 0
-248 -41 0
-249 248 0
-249 92 0
249 -248 -92 0
250 246 0
-250 -246 0
-251 250 0
-251 245 0
251 -250 -245 0
252 -249 0
252 -251 0
-252 249 251 0
-253 42 97 0
-253 -42 -97 0
253 -42 97 0
253 42 -97 0
-254 253 252 0
-254 -253 -252 0
254 -253 252 0
254 253 -252 0
255 42 0
-255 -42 0
-256 255 0
-256 97 0
256 -255 -97 0
257 253 0
-257 -253 0
-258 257 0
-258 252 0
258 -257 -252 0
259 -256 0
259 -258 0
-259 256 258 0
-260 47 102 0
-260 -47 -102 0
260 -47 102 0
260 47 -102 0
-261 260 259 0
-261 -260 -259 0
261 -260 259 0
261 260 -259 0
262 47 0
-262 -47 0
-263 262 0
-263 102 0
263 -262 -102 0
264 260 0
-264 -260 0
-265 264 0
-265 259 0
265 -264 -259 0
266 -263 0
266 -265 0
-266 263 265 0
-267 52 107 0
-267 -52 -107 0
267 -52 107 0
267 52 -107 0
-268 267 266 0
-268 -267 -266 0
268 -267 266 0
268 267 -266 0
269 52 0
-269 -52 0
-270 269 0
-270 107 0
270 -269 -107 0
271 267 0
-271 -267 0
-272 271 0
-272 266 0
272 -271 -266 0
273 -270 0
273 -272 0
-273 270 272 0
-274 57 112 0
-274 -57 -112 0
274 -57 112 0
274 57 -112 0
-275 274 273 0
-275 -274 -273 0
275 -274 273 0
275 274 -273 0
276 57 0
-276 -57 0
-277 276 0
-277 112 0
277 -276 -112 0
278 274 0
-278 -274 0
-279 278 0
-279 273 0
279 -278 -273 0
280 -277 0
280 -279 0
-280 277 279 0
-281 62 117 0
-281 -62 -117 0
281 -62 117 0
281 62 -117 0
-282 281 280 0
-282 -281 -280 0
282 -281 280 0
282 281 -280 0
283 62 0
-283 -62 0
-284 283 0
-284 117 0
284 -283 -117 0
285 281 0
-285 -281 0
-286 285 0
-286 280 0
286 -285 -280 0
287 -284 0
287 -286 0
-287 284 286 0
-288 67 122 0
-288 -67 -122 0
288 -67 122 0
288 67 -122 0
-289 288 287 0
-289 -288 -287 0
289 -288 287 0
289 288 -287 0
290 67 0
-290 -67 0
-291 290 0
-291 122 0
291 -290 -122 0
292 288 0
-292 -288 0
-293 292 0
-293 287 0
293 -292 -287 0
294 -291 0
294 -293 0
-294 291 293 0
-295 68 125 0
-295 -68 -125 0
295 -68 125 0
295 68 -125 0
-296 295 294 0
-296 -295 -294 0
296 -295 294 0
296 295 -294 0
297 68 0
-297 -68 0
-298 297 0
-298 125 0
298 -297 -125 0
299 295 0
-299 -295 0
-300 299 0
-300 294 0
300 -299 -294 0
301 -298 0
301 -300 0
-301 298 300 0
302 68 0
-302 -68 0
-303 125 0
-303 302 0
303 -125 -302 0
304 125 68 0
304 -125 -68 0
-304 -125 68 0
-304 125 -68 0
305 67 0
-305 -67 0
-306 122 0
-306 305 0
306 -122 -305 0
-307 306 0
-307 304 0
307 -306 -304 0
308 -303 0
308 -307 0
-308 303 307 0
309 122 67 0
309 -122 -67 0
-309 -122 67 0
-309 122 -67 0
-310 304 0
-310 309 0
310 -304 -309 0
311 62 0
-311 -62 0
-312 117 0
-312 311 0
312 -117 -311 0
-313 312 0
-313 310 0
313 -312 -310 0
314 -308 0
314 -313 0
-314 308 313 0
315 117 62 0
315 -117 -62 0
-315 -117 62 0
-315 117 -62 0
-316 310 0
-316 315 0
316 -310 -315 0
317 57 0
-317 -57 0
-318 112 0
-318 317 0
318 -112 -317 0
-319 318 0
-319 316 0
319 -318 -316 0
320 -314 0
320 -319 0
-320 314 319 0
321 112 57 0
321 -112 -57 0
-321 -112 57 0
-321 112 -57 0
-322 316 0
-322 321 0
322 -316 -321 0
323 52 0
-323 -52 0
-324 107 0
-324 323 0
324 -107 -323 0
-325 324 0
-325 322 0
325 -324 -322 0
326 -320 0
326 -325 0
-326 320 325 0
327 107 52 0
327 -107 -52 0
-327 -107 52 0
-327 107 -52 0
-328 322 0
-328 327 0
328 -322 -327 0
329 47 0
-329 -47 0
-330 102 0
-330 329 0
330 -102 -329 0
-331 330 0
-331 328 0
331 -330 -328 0
332 -326 0
332 -331 0
-332 326 331 0
333 102 47 0
333 -102 -47 0
-333 -102 47 0
-333 102 -47 0
-334 328 0
-334 333 0
334 -328 -333 0
335 42 0
-335 -42 0
-336 97 0
-336 335 0
336 -97 -335 0
-337 336 0
-337 334 0
337 -336 -334 0
338 -332 0
338 -337 0
-338 332 337 0
339 97 42 0
339 -97 -42 0
-339 -97 42 0
-339 97 -42 0
-340 334 0
-340 339 0
340 -334 -339 0
341 41 0
-341 -41 0
-342 92 0
-342 341 0
342 -92 -341 0
-343 342 0
-343 340 0
343 -342 -340 0
344 -338 0
344 -343 0
-344 338 343 0
345 92 41 0
345 -92 -41 0
-345 -92 41 0
-345 92 -41 0
-346 340 0
-346 345 0
346 -340 -345 0
347 40 0
-347 -40 0
-348 87 0
-348 347 0
348 -87 -347 0
-349 348 0
-349 346 0
349 -348 -346 0
350 -344 0
350 -349 0
-350 344 349 0
351 87 40 0
351 -87 -40 0
-351 -87 40 0
-351 87 -40 0
-352 346 0
-352 351 0
352 -346 -351 0
353 38 0
-353 -38 0
-354 82 0
-354 353 0
354 -82 -353 0
-355 354 0
-355 352 0
355 -354 -352 0
356 -350 0
356 -355 0
-356 350 355 0
357 82 38 0
357 -82 -38 0
-357 -82 38 0
-357 82 -38 0
-358 352 0
-358 357 0
358 -352 -357 0
359 35 0
-359 -35 0
-360 77 0
-360 359 0
360 -77 -359 0
-361 360 0
-361 358 0
361 -360 -358 0
362 -356 0
362 -361 0
-362 356 361 0
363 77 35 0
363 -77 -35 0
-363 -77 35 0
-363 77 -35 0
-364 358 0
-364 363 0
364 -358 -363 0
365 31 0
-365 -31 0
-366 72 0
-366 365 0
366 -72 -365 0
-367 366 0
-367 364 0
367 -366 -364 0
368 -362 0
368 -367 0
-368 362 367 0
369 72 31 0
369 -72 -31 0
-369 -72 31 0
-369 72 -31 0
-370 364 0
-370 369 0
370 -364 -369 0
371 27 0
-371 -27 0
-372 69 0
-372 371 0
372 -69 -371 0
-373 372 0
-373 370 0
373 -372 -370 0
374 -368 0
374 -373 0
-374 368 373 0
375 69 27 0
375 -69 -27 0
-375 -69 27 0
-375 69 -27 0
-376 370 0
-376 375 0
376 -370 -375 0
-377 374 0
-377 126 0
377 -374 -126 0
378 374 0
-378 -374 0
-379 378 0
-379 214 0
379 -378 -214 0
380 -377 0
380 -379 0
-380 377 379 0
-381 374 0
-381 131 0
381 -374 -131 0
382 374 0
-382 -374 0
-383 382 0
-383 219 0
383 -382 -219 0
384 -381 0
384 -383 0
-384 381 383 0
-385 374 0
-385 138 0
385 -374 -138 0
386 374 0
-386 -374 0
-387 386 0
-387 226 0
387 -386 -226 0
388 -385 0
388 -387 0
-388 385 387 0
-389 374 0
-389 145 0
389 -374 -145 0
390 374 0
-390 -374 0
-391 390 0
-391 233 0
391 -390 -233 0
392 -389 0
392 -391 0
-392 389 391 0
-393 374 0
-393 152 0
393 -374 -152 0
394 374 0
-394 -374 0
-395 394 0
-395 240 0
395 -394 -240 0
396 -393 0
396 -395 0
-396 393 395 0
-397 374 0
-397 159 0
397 -374 -159 0
398 374 0
-398 -374 0
-399 398 0
-399 247 0
399 -398 -247 0
400 -397 0
400 -399 0
-400 397 399 0
-401 374 0
-401 166 0
401 -374 -166 0
402 374 0
-402 -374 0
-403 402 0
-403 254 0
403 -402 -254 0
404 -401 0
404 -403 0
-404 401 403 0
-405 374 0
-405 173 0
405 -374 -173 0
406 374 0
-406 -374 0
-407 406 0
-407 261 0
407 -406 -261 0
408 -405 0
408 -407 0
-408 405 407 0
-409 374 0
-409 180 0
409 -374 -180 0
410 374 0
-410 -374 0
-411 410 0
-411 268 0
411 -410 -268 0
412 -409 0
412 -411 0
-412 409 411 0
-413 374 0
-413 187 0
413 -374 -187 0
414 374 0
-414 -374 0
-415 414 0
-415 275 0
415 -414 -275 0
416 -413 0
416 -415 0
-416 413 415 0
-417 374 0
-417 194 0
417 -374 -194 0
418 374 0
-418 -374 0
-419 418 0
-419 282 0
419 -418 -282 0
420 -417 0
420 -419 0
-420 417 419 0
-421 374 0
-421 201 0
421 -374 -201 0
422 374 0
-422 -374 0
-423 422 0
-423 289 0
423 -422 -289 0
424 -421 0
424 -423 0
-424 421 423 0
-425 374 0
-425 208 0
425 -374 -208 0
426 374 0
-426 -374 0
-427 426 0
-427 296 0
427 -426 -296 0
428 -425 0
428 -427 0
-428 425 427 0
429 -380 0
429 -384 0
-429 380 384 0
430 -429 0
430 -388 0
-430 429 388 0
431 -430 0
431 -392 0
-431 430 392 0
432 -431 0
432 -396 0
-432 431 396 0
433 -432 0
433 -400 0
-433 432 400 0
434 -433 0
434 -404 0
-434 433 404 0
435 -434 0
435 -408 0
-435 434 408 0
436 -435 0
436 -412 0
-436 435 412 0
437 -436 0
437 -416 0
-437 436 416 0
438 -437 0
438 -420 0
-438 437 420 0
439 -438 0
439 -424 0
-439 438 424 0
440 -439 0
440 -428 0
-440 439 428 0
-25 0
26 0
412 0
