p cnf 443 1279
-27 1 13 0
-27 -1 -13 0
27 -1 13 0
27 1 -13 0
-28 1 0
-28 13 0
28 -1 -13 0
29 -2 0
29 -14 0
-29 2 14 0
30 -29 0
30 -28 0
-30 29 28 0
31 -3 0
31 -15 0
-31 3 15 0
-32 4 16 0
-32 -4 -16 0
32 -4 16 0
32 4 -16 0
-33 4 0
-33 16 0
33 -4 -16 0
-34 5 17 0
-34 -5 -17 0
34 -5 17 0
34 5 -17 0
-35 5 0
-35 17 0
35 -5 -17 0
36 -34 0
36 -33 0
-36 34 33 0
-37 6 18 0
-37 -6 -18 0
37 -6 18 0
37 6 -18 0
-38 6 0
-38 18 0
38 -6 -18 0
-39 37 0
-39 35 0
39 -37 -35 0
-40 37 35 0
-40 -37 -35 0
40 -37 35 0
40 37 -35 0
41 -38 0
41 -39 0
-41 38 39 0
-42 7 19 0
-42 -7 -19 0
42 -7 19 0
42 7 -19 0
-43 7 0
-43 19 0
43 -7 -19 0
-44 42 0
-44 41 0
44 -42 -41 0
-45 42 41 0
-45 -42 -41 0
45 -42 41 0
45 42 -41 0
46 -43 0
46 -44 0
-46 43 44 0
-47 8 20 0
-47 -8 -20 0
47 -8 20 0
47 8 -20 0
-48 8 0
-48 20 0
48 -8 -20 0
-49 47 0
-49 46 0
49 -47 -46 0
-50 47 46 0
-50 -47 -46 0
50 -47 46 0
50 47 -46 0
51 -48 0
51 -49 0
-51 48 49 0
-52 9 21 0
-52 -9 -21 0
52 -9 21 0
52 9 -21 0
-53 9 0
-53 21 0
53 -9 -21 0
-54 52 0
-54 51 0
54 -52 -51 0
-55 52 51 0
-55 -52 -51 0
55 -52 51 0
55 52 -51 0
56 -53 0
56 -54 0
-56 53 54 0
-57 10 22 0
-57 -10 -22 0
57 -10 22 0
57 10 -22 0
-58 10 0
-58 22 0
58 -10 -22 0
-59 57 0
-59 56 0
59 -57 -56 0
-60 57 56 0
-60 -57 -56 0
60 -57 56 0
60 57 -56 0
61 -58 0
61 -59 0
-61 58 59 0
-62 11 23 0
-62 -11 -23 0
62 -11 23 0
62 11 -23 0
-63 11 0
-63 23 0
63 -11 -23 0
-64 62 0
-64 61 0
64 -62 -61 0
-65 62 61 0
-65 -62 -61 0
65 -62 61 0
65 62 -61 0
66 -63 0
66 -64 0
-66 63 64 0
-67 12 24 0
-67 -12 -24 0
67 -12 24 0
67 12 -24 0
-68 12 0
-68 24 0
68 -12 -24 0
-69 67 0
-69 66 0
69 -67 -66 0
-70 67 66 0
-70 -67 -66 0
70 -67 66 0
70 67 -66 0
71 -68 0
71 -69 0
-71 68 69 0
-72 1 13 0
-72 -1 -13 0
72 -1 13 0
72 1 -13 0
-73 1 0
-73 13 0
73 -1 -13 0
-74 2 14 0
-74 -2 -14 0
74 -2 14 0
74 2 -14 0
-75 74 73 0
-75 -74 -73 0
75 -74 73 0
75 74 -73 0
-76 2 0
-76 14 0
76 -2 -14 0
-77 73 0
-77 74 0
77 -73 -74 0
78 -76 0
78 -77 0
-78 76 77 0
-79 3 15 0
-79 -3 -15 0
79 -3 15 0
79 3 -15 0
-80 79 78 0
-80 -79 -78 0
80 -79 78 0
80 79 -78 0
-81 3 0
-81 15 0
81 -3 -15 0
-82 78 0
-82 79 0
82 -78 -79 0
83 -81 0
83 -82 0
-83 81 82 0
-84 4 16 0
-84 -4 -16 0
84 -4 16 0
84 4 -16 0
-85 84 83 0
-85 -84 -83 0
85 -84 83 0
85 84 -83 0
-86 4 0
-86 16 0
86 -4 -16 0
-87 83 0
-87 84 0
87 -83 -84 0
88 -86 0
88 -87 0
-88 86 87 0
-89 5 17 0
-89 -5 -17 0
89 -5 17 0
89 5 -17 0
-90 89 88 0
-90 -89 -88 0
90 -89 88 0
90 89 -88 0
-91 5 0
-91 17 0
91 -5 -17 0
-92 88 0
-92 89 0
92 -88 -89 0
93 -91 0
93 -92 0
-93 91 92 0
-94 6 18 0
-94 -6 -18 0
94 -6 18 0
94 6 -18 0
-95 94 93 0
-95 -94 -93 0
95 -94 93 0
95 94 -93 0
-96 6 0
-96 18 0
96 -6 -18 0
-97 93 0
-97 94 0
97 -93 -94 0
98 -96 0
98 -97 0
-98 96 97 0
-99 7 19 0
-99 -7 -19 0
99 -7 19 0
99 7 -19 0
-100 99 98 0
-100 -99 -98 0
100 -99 98 0
100 99 -98 0
-101 7 0
-101 19 0
101 -7 -19 0
-102 98 0
-102 99 0
102 -98 -99 0
103 -101 0
103 -102 0
-103 101 102 0
-104 8 20 0
-104 -8 -20 0
104 -8 20 0
104 8 -20 0
-105 104 103 0
-105 -104 -103 0
105 -104 103 0
105 104 -103 0
-106 8 0
-106 20 0
106 -8 -20 0
-107 103 0
-107 104 0
107 -103 -104 0
108 -106 0
108 -107 0
-108 106 107 0
-109 9 21 0
-109 -9 -21 0
109 -9 21 0
109 9 -21 0
-110 109 108 0
-110 -109 -108 0
110 -109 108 0
110 109 -108 0
-111 9 0
-111 21 0
111 -9 -21 0
-112 108 0
-112 109 0
112 -108 -109 0
113 -111 0
113 -112 0
-113 111 112 0
-114 10 22 0
-114 -10 -22 0
114 -10 22 0
114 10 -22 0
-115 114 113 0
-115 -114 -113 0
115 -114 113 0
115 114 -113 0
-116 10 0
-116 22 0
116 -10 -22 0
-117 113 0
-117 114 0
117 -113 -114 0
118 -116 0
118 -117 0
-118 116 117 0
-119 11 23 0
-119 -11 -23 0
119 -11 23 0
119 11 -23 0
-120 119 118 0
-120 -119 -118 0
120 -119 118 0
120 119 -118 0
-121 11 0
-121 23 0
121 -11 -23 0
-122 118 0
-122 119 0
122 -118 -119 0
123 -121 0
123 -122 0
-123 121 122 0
-124 12 24 0
-124 -12 -24 0
124 -12 24 0
124 12 -24 0
-125 124 123 0
-125 -124 -123 0
125 -124 123 0
125 124 -123 0
-126 12 0
-126 24 0
126 -12 -24 0
-127 123 0
-127 124 0
127 -123 -124 0
128 -126 0
128 -127 0
-128 126 127 0
-129 72 27 0
-129 -72 -27 0
129 -72 27 0
129 72 -27 0
130 72 0
-130 -72 0
-131 130 0
-131 27 0
131 -130 -27 0
132 129 0
-132 -129 0
-133 75 30 0
-133 -75 -30 0
133 -75 30 0
133 75 -30 0
-134 133 131 0
-134 -133 -131 0
134 -133 131 0
134 133 -131 0
135 75 0
-135 -75 0
-136 135 0
-136 30 0
136 -135 -30 0
137 133 0
-137 -133 0
-138 137 0
-138 131 0
138 -137 -131 0
139 -136 0
139 -138 0
-139 136 138 0
-140 80 31 0
-140 -80 -31 0
140 -80 31 0
140 80 -31 0
-141 140 139 0
-141 -140 -139 0
141 -140 139 0
141 140 -139 0
142 80 0
-142 -80 0
-143 142 0
-143 31 0
143 -142 -31 0
144 140 0
-144 -140 0
-145 144 0
-145 139 0
145 -144 -139 0
146 -143 0
146 -145 0
-146 143 145 0
-147 85 32 0
-147 -85 -32 0
147 -85 32 0
147 85 -32 0
-148 147 146 0
-148 -147 -146 0
148 -147 146 0
148 147 -146 0
149 85 0
-149 -85 0
-150 149 0
-150 32 0
150 -149 -32 0
151 147 0
-151 -147 0
-152 151 0
-152 146 0
152 -151 -146 0
153 -150 0
153 -152 0
-153 150 152 0
-154 90 36 0
-154 -90 -36 0
154 -90 36 0
154 90 -36 0
-155 154 153 0
-155 -154 -153 0
155 -154 153 0
155 154 -153 0
156 90 0
-156 -90 0
-157 156 0
-157 36 0
157 -156 -36 0
158 154 0
-158 -154 0
-159 158 0
-159 153 0
159 -158 -153 0
160 -157 0
160 -159 0
-160 157 159 0
-161 95 40 0
-161 -95 -40 0
161 -95 40 0
161 95 -40 0
-162 161 160 0
-162 -161 -160 0
162 -161 160 0
162 161 -160 0
163 95 0
-163 -95 0
-164 163 0
-164 40 0
164 -163 -40 0
165 161 0
-165 -161 0
-166 165 0
-166 160 0
166 -165 -160 0
167 -164 0
167 -166 0
-167 164 166 0
-168 100 45 0
-168 -100 -45 0
168 -100 45 0
168 100 -45 0
-169 168 167 0
-169 -168 -167 0
169 -168 167 0
169 168 -167 0
170 100 0
-170 -100 0
-171 170 0
-171 45 0
171 -170 -45 0
172 168 0
-172 -168 0
-173 172 0
-173 167 0
173 -172 -167 0
174 -171 0
174 -173 0
-174 171 173 0
-175 105 50 0
-175 -105 -50 0
175 -105 50 0
175 105 -50 0
-176 175 174 0
-176 -175 -174 0
176 -175 174 0
176 175 -174 0
177 105 0
-177 -105 0
-178 177 0
-178 50 0
178 -177 -50 0
179 175 0
-179 -175 0
-180 179 0
-180 174 0
180 -179 -174 0
181 -178 0
181 -180 0
-181 178 180 0
-182 110 55 0
-182 -110 -55 0
182 -110 55 0
182 110 -55 0
-183 182 181 0
-183 -182 -181 0
183 -182 181 0
183 182 -181 0
184 110 0
-184 -110 0
-185 184 0
-185 55 0
185 -184 -55 0
186 182 0
-186 -182 0
-187 186 0
-187 181 0
187 -186 -181 0
188 -185 0
188 -187 0
-188 185 187 0
-189 115 60 0
-189 -115 -60 0
189 -115 60 0
189 115 -60 0
-190 189 188 0
-190 -189 -188 0
190 -189 188 0
190 189 -188 0
191 115 0
-191 -115 0
-192 191 0
-192 60 0
192 -191 -60 0
193 189 0
-193 -189 0
-194 193 0
-194 188 0
194 -193 -188 0
195 -192 0
195 -194 0
-195 192 194 0
-196 120 65 0
-196 -120 -65 0
196 -120 65 0
196 120 -65 0
-197 196 195 0
-197 -196 -195 0
197 -196 195 0
197 196 -195 0
198 120 0
-198 -120 0
-199 198 0
-199 65 0
199 -198 -65 0
200 196 0
-200 -196 0
-201 200 0
-201 195 0
201 -200 -195 0
202 -199 0
202 -201 0
-202 199 201 0
-203 125 70 0
-203 -125 -70 0
203 -125 70 0
203 125 -70 0
-204 203 202 0
-204 -203 -202 0
204 -203 202 0
204 203 -202 0
205 125 0
-205 -125 0
-206 205 0
-206 70 0
206 -205 -70 0
207 203 0
-207 -203 0
-208 207 0
-208 202 0
208 -207 -202 0
209 -206 0
209 -208 0
-209 206 208 0
-210 128 71 0
-210 -128 -71 0
210 -128 71 0
210 128 -71 0
-211 210 209 0
-211 -210 -209 0
211 -210 209 0
211 210 -209 0
212 128 0
-212 -128 0
-213 212 0
-213 71 0
213 -212 -71 0
214 210 0
-214 -210 0
-215 214 0
-215 209 0
215 -214 -209 0
216 -213 0
216 -215 0
-216 213 215 0
-217 27 72 0
-217 -27 -72 0
217 -27 72 0
217 27 -72 0
218 27 0
-218 -27 0
-219 218 0
-219 72 0
219 -218 -72 0
220 217 0
-220 -217 0
-221 30 75 0
-221 -30 -75 0
221 -30 75 0
221 30 -75 0
-222 221 219 0
-222 -221 -219 0
222 -221 219 0
222 221 -219 0
223 30 0
-223 -30 0
-224 223 0
-224 75 0
224 -223 -75 0
225 221 0
-225 -221 0
-226 225 0
-226 219 0
226 -225 -219 0
227 -224 0
227 -226 0
-227 224 226 0
-228 31 80 0
-228 -31 -80 0
228 -31 80 0
228 31 -80 0
-229 228 227 0
-229 -228 -227 0
229 -228 227 0
229 228 -227 0
230 31 0
-230 -31 0
-231 230 0
-231 80 0
231 -230 -80 0
232 228 0
-232 -228 0
-233 232 0
-233 227 0
233 -232 -227 0
234 -231 0
234 -233 0
-234 231 233 0
-235 32 85 0
-235 -32 -85 0
235 -32 85 0
235 32 -85 0
-236 235 234 0
-236 -235 -234 0
236 -235 234 0
236 235 -234 0
237 32 0
-237 -32 0
-238 237 0
-238 85 0
238 -237 -85 0
239 235 0
-239 -235 0
-240 239 0
-240 234 0
240 -239 -234 0
241 -238 0
241 -240 0
-241 238 240 0
-242 36 90 0
-242 -36 -90 0
242 -36 90 0
242 36 -90 0
-243 242 241 0
-243 -242 -241 0
243 -242 241 0
243 242 -241 0
244 36 0
-244 -36 0
-245 244 0
-245 90 0
245 -244 -90 0
246 242 0
-246 -242 0
-247 246 0
-247 241 0
247 -246 -241 0
248 -245 0
248 -247 0
-248 245 247 0
-249 40 95 0
-249 -40 -95 0
249 -40 95 0
249 40 -95 0
-250 249 248 0
-250 -249 -248 0
250 -249 248 0
250 249 -248 0
251 40 0
-251 -40 0
-252 251 0
-252 95 0
252 -251 -95 0
253 249 0
-253 -249 0
-254 253 0
-254 248 0
254 -253 -248 0
255 -252 0
255 -254 0
-255 252 254 0
-256 45 100 0
-256 -45 -100 0
256 -45 100 0
256 45 -100 0
-257 256 255 0
-257 -256 -255 0
257 -256 255 0
257 256 -255 0
258 45 0
-258 -45 0
-259 258 0
-259 100 0
259 -258 -100 0
260 256 0
-260 -256 0
-261 260 0
-261 255 0
261 -260 -255 0
262 -259 0
262 -261 0
-262 259 261 0
-263 50 105 0
-263 -50 -105 0
263 -50 105 0
263 50 -105 0
-264 263 262 0
-264 -263 -262 0
264 -263 262 0
264 263 -262 0
265 50 0
-265 -50 0
-266 265 0
-266 105 0
266 -265 -105 0
267 263 0
-267 -263 0
-268 267 0
-268 262 0
268 -267 -262 0
269 -266 0
269 -268 0
-269 266 268 0
-270 55 110 0
-270 -55 -110 0
270 -55 110 0
270 55 -110 0
-271 270 269 0
-271 -270 -269 0
271 -270 269 0
271 270 -269 0
272 55 0
-272 -55 0
-273 272 0
-273 110 0
273 -272 -110 0
274 270 0
-274 -270 0
-275 274 0
-275 269 0
275 -274 -269 0
276 -273 0
276 -275 0
-276 273 275 0
-277 60 115 0
-277 -60 -115 0
277 -60 115 0
277 60 -115 0
-278 277 276 0
-278 -277 -276 0
278 -277 276 0
278 277 -276 0
279 60 0
-279 -60 0
-280 279 0
-280 115 0
280 -279 -115 0
281 277 0
-281 -277 0
-282 281 0
-282 276 0
282 -281 -276 0
283 -280 0
283 -282 0
-283 280 282 0
-284 65 120 0
-284 -65 -120 0
284 -65 120 0
284 65 -120 0
-285 284 283 0
-285 -284 -283 0
285 -284 283 0
285 284 -283 0
286 65 0
-286 -65 0
-287 286 0
-287 120 0
287 -286 -120 0
288 284 0
-288 -284 0
-289 288 0
-289 283 0
289 -288 -283 0
290 -287 0
290 -289 0
-290 287 289 0
-291 70 125 0
-291 -70 -125 0
291 -70 125 0
291 70 -125 0
-292 291 290 0
-292 -291 -290 0
292 -291 290 0
292 291 -290 0
293 70 0
-293 -70 0
-294 293 0
-294 125 0
294 -293 -125 0
295 291 0
-295 -291 0
-296 295 0
-296 290 0
296 -295 -290 0
297 -294 0
297 -296 0
-297 294 296 0
-298 71 128 0
-298 -71 -128 0
298 -71 128 0
298 71 -128 0
-299 298 297 0
-299 -298 -297 0
299 -298 297 0
299 298 -297 0
300 71 0
-300 -71 0
-301 300 0
-301 128 0
301 -300 -128 0
302 298 0
-302 -298 0
-303 302 0
-303 297 0
303 -302 -297 0
304 -301 0
304 -303 0
-304 301 303 0
305 71 0
-305 -71 0
-306 128 0
-306 305 0
306 -128 -305 0
307 128 71 0
307 -128 -71 0
-307 -128 71 0
-307 128 -71 0
308 70 0
-308 -70 0
-309 125 0
-309 308 0
309 -125 -308 0
-310 309 0
-310 307 0
310 -309 -307 0
311 -306 0
311 -310 0
-311 306 310 0
312 125 70 0
312 -125 -70 0
-312 -125 70 0
-312 125 -70 0
-313 307 0
-313 312 0
313 -307 -312 0
314 65 0
-314 -65 0
-315 120 0
-315 314 0
315 -120 -314 0
-316 315 0
-316 313 0
316 -315 -313 0
317 -311 0
317 -316 0
-317 311 316 0
318 120 65 0
318 -120 -65 0
-318 -120 65 0
-318 120 -65 0
-319 313 0
-319 318 0
319 -313 -318 0
320 60 0
-320 -60 0
-321 115 0
-321 320 0
321 -115 -320 0
-322 321 0
-322 319 0
322 -321 -319 0
323 -317 0
323 -322 0
-323 317 322 0
324 115 60 0
324 -115 -60 0
-324 -115 60 0
-324 115 -60 0
-325 319 0
-325 324 0
325 -319 -324 0
326 55 0
-326 -55 0
-327 110 0
-327 326 0
327 -110 -326 0
-328 327 0
-328 325 0
328 -327 -325 0
329 -323 0
329 -328 0
-329 323 328 0
330 110 55 0
330 -110 -55 0
-330 -110 55 0
-330 110 -55 0
-331 325 0
-331 330 0
331 -325 -330 0
332 50 0
-332 -50 0
-333 105 0
-333 332 0
333 -105 -332 0
-334 333 0
-334 331 0
334 -333 -331 0
335 -329 0
335 -334 0
-335 329 334 0
336 105 50 0
336 -105 -50 0
-336 -105 50 0
-336 105 -50 0
-337 331 0
-337 336 0
337 -331 -336 0
338 45 0
-338 -45 0
-339 100 0
-339 338 0
339 -100 -338 0
-340 339 0
-340 337 0
340 -339 -337 0
341 -335 0
341 -340 0
-341 335 340 0
342 100 45 0
342 -100 -45 0
-342 -100 45 0
-342 100 -45 0
-343 337 0
-343 342 0
343 -337 -342 0
344 40 0
-344 -40 0
-345 95 0
-345 344 0
345 -95 -344 0
-346 345 0
-346 343 0
346 -345 -343 0
347 -341 0
347 -346 0
-347 341 346 0
348 95 40 0
348 -95 -40 0
-348 -95 40 0
-348 95 -40 0
-349 343 0
-349 348 0
349 -343 -348 0
350 36 0
-350 -36 0
-351 90 0
-351 350 0
351 -90 -350 0
-352 351 0
-352 349 0
352 -351 -349 0
353 -347 0
353 -352 0
-353 347 352 0
354 90 36 0
354 -90 -36 0
-354 -90 36 0
-354 90 -36 0
-355 349 0
-355 354 0
355 -349 -354 0
356 32 0
-356 -32 0
-357 85 0
-357 356 0
357 -85 -356 0
-358 357 0
-358 355 0
358 -357 -355 0
359 -353 0
359 -358 0
-359 353 358 0
360 85 32 0
360 -85 -32 0
-360 -85 32 0
-360 85 -32 0
-361 355 0
-361 360 0
361 -355 -360 0
362 31 0
-362 -31 0
-363 80 0
-363 362 0
363 -80 -362 0
-364 363 0
-364 361 0
364 -363 -361 0
365 -359 0
365 -364 0
-365 359 364 0
366 80 31 0
366 -80 -31 0
-366 -80 31 0
-366 80 -31 0
-367 361 0
-367 366 0
367 -361 -366 0
368 30 0
-368 -30 0
-369 75 0
-369 368 0
369 -75 -368 0
-370 369 0
-370 367 0
370 -369 -367 0
371 -365 0
371 -370 0
-371 365 370 0
372 75 30 0
372 -75 -30 0
-372 -75 30 0
-372 75 -30 0
-373 367 0
-373 372 0
373 -367 -372 0
374 27 0
-374 -27 0
-375 72 0
-375 374 0
375 -72 -374 0
-376 375 0
-376 373 0
376 -375 -373 0
377 -371 0
377 -376 0
-377 371 376 0
378 72 27 0
378 -72 -27 0
-378 -72 27 0
-378 72 -27 0
-379 373 0
-379 378 0
379 -373 -378 0
-380 377 0
-380 129 0
380 -377 -129 0
381 377 0
-381 -377 0
-382 381 0
-382 217 0
382 -381 -217 0
383 -380 0
383 -382 0
-383 380 382 0
-384 377 0
-384 134 0
384 -377 -134 0
385 377 0
-385 -377 0
-386 385 0
-386 222 0
386 -385 -222 0
387 -384 0
387 -386 0
-387 384 386 0
-388 377 0
-388 141 0
388 -377 -141 0
389 377 0
-389 -377 0
-390 389 0
-390 229 0
390 -389 -229 0
391 -388 0
391 -390 0
-391 388 390 0
-392 377 0
-392 148 0
392 -377 -148 0
393 377 0
-393 -377 0
-394 393 0
-394 236 0
394 -393 -236 0
395 -392 0
395 -394 0
-395 392 394 0
-396 377 0
-396 155 0
396 -377 -155 0
397 377 0
-397 -377 0
-398 397 0
-398 243 0
398 -397 -243 0
399 -396 0
399 -398 0
-399 396 398 0
-400 377 0
-400 162 0
400 -377 -162 0
401 377 0
-401 -377 0
-402 401 0
-402 250 0
402 -401 -250 0
403 -400 0
403 -402 0
-403 400 402 0
-404 377 0
-404 169 0
404 -377 -169 0
405 377 0
-405 -377 0
-406 405 0
-406 257 0
406 -405 -257 0
407 -404 0
407 -406 0
-407 404 406 0
-408 377 0
-408 176 0
408 -377 -176 0
409 377 0
-409 -377 0
-410 409 0
-410 264 0
410 -409 -264 0
411 -408 0
411 -410 0
-411 408 410 0
-412 377 0
-412 183 0
412 -377 -183 0
413 377 0
-413 -377 0
-414 413 0
-414 271 0
414 -413 -271 0
415 -412 0
415 -414 0
-415 412 414 0
-416 377 0
-416 190 0
416 -377 -190 0
417 377 0
-417 -377 0
-418 417 0
-418 278 0
418 -417 -278 0
419 -416 0
419 -418 0
-419 416 418 0
-420 377 0
-420 197 0
420 -377 -197 0
421 377 0
-421 -377 0
-422 421 0
-422 285 0
422 -421 -285 0
423 -420 0
423 -422 0
-423 420 422 0
-424 377 0
-424 204 0
424 -377 -204 0
425 377 0
-425 -377 0
-426 425 0
-426 292 0
426 -425 -292 0
427 -424 0
427 -426 0
-427 424 426 0
-428 377 0
-428 211 0
428 -377 -211 0
429 377 0
-429 -377 0
-430 429 0
-430 299 0
430 -429 -299 0
431 -428 0
431 -430 0
-431 428 430 0
432 -383 0
432 -387 0
-432 383 387 0
433 -432 0
433 -391 0
-433 432 391 0
434 -433 0
434 -395 0
-434 433 395 0
435 -434 0
435 -399 0
-435 434 399 0
436 -435 0
436 -403 0
-436 435 403 0
437 -436 0
437 -407 0
-437 436 407 0
438 -437 0
438 -411 0
-438 437 411 0
439 -438 0
439 -415 0
-439 438 415 0
440 -439 0
440 -419 0
-440 439 419 0
441 -440 0
441 -423 0
-441 440 423 0
442 -441 0
442 -427 0
-442 441 427 0
443 -442 0
443 -431 0
-443 442 431 0
-25 0
26 0
443 0
