p cnf 449 1300
-27 1 13 0
-27 -1 -13 0
27 -1 13 0
27 1 -13 0
-28 1 0
-28 13 0
28 -1 -13 0
-29 2 14 0
-29 -2 -14 0
29 -2 14 0
29 2 -14 0
-30 2 0
-30 14 0
30 -2 -14 0
31 -29 0
31 -28 0
-31 29 28 0
-32 3 15 0
-32 -3 -15 0
32 -3 15 0
32 3 -15 0
-33 3 0
-33 15 0
33 -3 -15 0
34 -32 0
34 -30 0
-34 32 30 0
-35 4 16 0
-35 -4 -16 0
35 -4 16 0
35 4 -16 0
-36 4 0
-36 16 0
36 -4 -16 0
-37 35 0
-37 33 0
37 -35 -33 0
-38 35 33 0
-38 -35 -33 0
38 -35 33 0
38 35 -33 0
39 -36 0
39 -37 0
-39 36 37 0
-40 5 17 0
-40 -5 -17 0
40 -5 17 0
40 5 -17 0
41 -40 0
41 -39 0
-41 40 39 0
-42 5 0
-42 17 0
42 -5 -17 0
-43 6 18 0
-43 -6 -18 0
43 -6 18 0
43 6 -18 0
-44 6 0
-44 18 0
44 -6 -18 0
-45 43 0
-45 42 0
45 -43 -42 0
-46 43 42 0
-46 -43 -42 0
46 -43 42 0
46 43 -42 0
47 -44 0
47 -45 0
-47 44 45 0
-48 7 19 0
-48 -7 -19 0
48 -7 19 0
48 7 -19 0
-49 7 0
-49 19 0
49 -7 -19 0
-50 48 0
-50 47 0
50 -48 -47 0
-51 48 47 0
-51 -48 -47 0
51 -48 47 0
51 48 -47 0
52 -49 0
52 -50 0
-52 49 50 0
-53 8 20 0
-53 -8 -20 0
53 -8 20 0
53 8 -20 0
-54 8 0
-54 20 0
54 -8 -20 0
-55 53 0
-55 52 0
55 -53 -52 0
-56 53 52 0
-56 -53 -52 0
56 -53 52 0
56 53 -52 0
57 -54 0
57 -55 0
-57 54 55 0
-58 9 21 0
-58 -9 -21 0
58 -9 21 0
58 9 -21 0
-59 9 0
-59 21 0
59 -9 -21 0
-60 58 0
-60 57 0
60 -58 -57 0
-61 58 57 0
-61 -58 -57 0
61 -58 57 0
61 58 -57 0
62 -59 0
62 -60 0
-62 59 60 0
-63 10 22 0
-63 -10 -22 0
63 -10 22 0
63 10 -22 0
-64 10 0
-64 22 0
64 -10 -22 0
-65 63 0
-65 62 0
65 -63 -62 0
-66 63 62 0
-66 -63 -62 0
66 -63 62 0
66 63 -62 0
67 -64 0
67 -65 0
-67 64 65 0
-68 11 23 0
-68 -11 -23 0
68 -11 23 0
68 11 -23 0
-69 11 0
-69 23 0
69 -11 -23 0
-70 68 0
-70 67 0
70 -68 -67 0
-71 68 67 0
-71 -68 -67 0
71 -68 67 0
71 68 -67 0
72 -69 0
72 -70 0
-72 69 70 0
-73 12 24 0
-73 -12 -24 0
73 -12 24 0
73 12 -24 0
-74 12 0
-74 24 0
74 -12 -24 0
-75 73 0
-75 72 0
75 -73 -72 0
-76 73 72 0
-76 -73 -72 0
76 -73 72 0
76 73 -72 0
77 -74 0
77 -75 0
-77 74 75 0
-78 1 13 0
-78 -1 -13 0
78 -1 13 0
78 1 -13 0
-79 1 0
-79 13 0
79 -1 -13 0
-80 2 14 0
-80 -2 -14 0
80 -2 14 0
80 2 -14 0
-81 80 79 0
-81 -80 -79 0
81 -80 79 0
81 80 -79 0
-82 2 0
-82 14 0
82 -2 -14 0
-83 79 0
-83 80 0
83 -79 -80 0
84 -82 0
84 -83 0
-84 82 83 0
-85 3 15 0
-85 -3 -15 0
85 -3 15 0
85 3 -15 0
-86 85 84 0
-86 -85 -84 0
86 -85 84 0
86 85 -84 0
-87 3 0
-87 15 0
87 -3 -15 0
-88 84 0
-88 85 0
88 -84 -85 0
89 -87 0
89 -88 0
-89 87 88 0
-90 4 16 0
-90 -4 -16 0
90 -4 16 0
90 4 -16 0
-91 90 89 0
-91 -90 -89 0
91 -90 89 0
91 90 -89 0
-92 4 0
-92 16 0
92 -4 -16 0
-93 89 0
-93 90 0
93 -89 -90 0
94 -92 0
94 -93 0
-94 92 93 0
-95 5 17 0
-95 -5 -17 0
95 -5 17 0
95 5 -17 0
-96 95 94 0
-96 -95 -94 0
96 -95 94 0
96 95 -94 0
-97 5 0
-97 17 0
97 -5 -17 0
-98 94 0
-98 95 0
98 -94 -95 0
99 -97 0
99 -98 0
-99 97 98 0
-100 6 18 0
-100 -6 -18 0
100 -6 18 0
100 6 -18 0
-101 100 99 0
-101 -100 -99 0
101 -100 99 0
101 100 -99 0
-102 6 0
-102 18 0
102 -6 -18 0
-103 99 0
-103 100 0
103 -99 -100 0
104 -102 0
104 -103 0
-104 102 103 0
-105 7 19 0
-105 -7 -19 0
105 -7 19 0
105 7 -19 0
-106 105 104 0
-106 -105 -104 0
106 -105 104 0
106 105 -104 0
-107 7 0
-107 19 0
107 -7 -19 0
-108 104 0
-108 105 0
108 -104 -105 0
109 -107 0
109 -108 0
-109 107 108 0
-110 8 20 0
-110 -8 -20 0
110 -8 20 0
110 8 -20 0
-111 110 109 0
-111 -110 -109 0
111 -110 109 0
111 110 -109 0
-112 8 0
-112 20 0
112 -8 -20 0
-113 109 0
-113 110 0
113 -109 -110 0
114 -112 0
114 -113 0
-114 112 113 0
-115 9 21 0
-115 -9 -21 0
115 -9 21 0
115 9 -21 0
-116 115 114 0
-116 -115 -114 0
116 -115 114 0
116 115 -114 0
-117 9 0
-117 21 0
117 -9 -21 0
-118 114 0
-118 115 0
118 -114 -115 0
119 -117 0
119 -118 0
-119 117 118 0
-120 10 22 0
-120 -10 -22 0
120 -10 22 0
120 10 -22 0
-121 120 119 0
-121 -120 -119 0
121 -120 119 0
121 120 -119 0
-122 10 0
-122 22 0
122 -10 -22 0
-123 119 0
-123 120 0
123 -119 -120 0
124 -122 0
124 -123 0
-124 122 123 0
-125 11 23 0
-125 -11 -23 0
125 -11 23 0
125 11 -23 0
-126 125 124 0
-126 -125 -124 0
126 -125 124 0
126 125 -124 0
-127 11 0
-127 23 0
127 -11 -23 0
-128 124 0
-128 125 0
128 -124 -125 0
129 -127 0
129 -128 0
-129 127 128 0
-130 12 24 0
-130 -12 -24 0
130 -12 24 0
130 12 -24 0
-131 130 129 0
-131 -130 -129 0
131 -130 129 0
131 130 -129 0
-132 12 0
-132 24 0
132 -12 -24 0
-133 129 0
-133 130 0
133 -129 -130 0
134 -132 0
134 -133 0
-134 132 133 0
-135 78 27 0
-135 -78 -27 0
135 -78 27 0
135 78 -27 0
136 78 0
-136 -78 0
-137 136 0
-137 27 0
137 -136 -27 0
138 135 0
-138 -135 0
-139 81 31 0
-139 -81 -31 0
139 -81 31 0
139 81 -31 0
-140 139 137 0
-140 -139 -137 0
140 -139 137 0
140 139 -137 0
141 81 0
-141 -81 0
-142 141 0
-142 31 0
142 -141 -31 0
143 139 0
-143 -139 0
-144 143 0
-144 137 0
144 -143 -137 0
145 -142 0
145 -144 0
-145 142 144 0
-146 86 34 0
-146 -86 -34 0
146 -86 34 0
146 86 -34 0
-147 146 145 0
-147 -146 -145 0
147 -146 145 0
147 146 -145 0
148 86 0
-148 -86 0
-149 148 0
-149 34 0
149 -148 -34 0
150 146 0
-150 -146 0
-151 150 0
-151 145 0
151 -150 -145 0
152 -149 0
152 -151 0
-152 149 151 0
-153 91 38 0
-153 -91 -38 0
153 -91 38 0
153 91 -38 0
-154 153 152 0
-154 -153 -152 0
154 -153 152 0
154 153 -152 0
155 91 0
-155 -91 0
-156 155 0
-156 38 0
156 -155 -38 0
157 153 0
-157 -153 0
-158 157 0
-158 152 0
158 -157 -152 0
159 -156 0
159 -158 0
-159 156 158 0
-160 96 41 0
-160 -96 -41 0
160 -96 41 0
160 96 -41 0
-161 160 159 0
-161 -160 -159 0
161 -160 159 0
161 160 -159 0
162 96 0
-162 -96 0
-163 162 0
-163 41 0
163 -162 -41 0
164 160 0
-164 -160 0
-165 164 0
-165 159 0
165 -164 -159 0
166 -163 0
166 -165 0
-166 163 165 0
-167 101 46 0
-167 -101 -46 0
167 -101 46 0
167 101 -46 0
-168 167 166 0
-168 -167 -166 0
168 -167 166 0
168 167 -166 0
169 101 0
-169 -101 0
-170 169 0
-170 46 0
170 -169 -46 0
171 167 0
-171 -167 0
-172 171 0
-172 166 0
172 -171 -166 0
173 -170 0
173 -172 0
-173 170 172 0
-174 106 51 0
-174 -106 -51 0
174 -106 51 0
174 106 -51 0
-175 174 173 0
-175 -174 -173 0
175 -174 173 0
175 174 -173 0
176 106 0
-176 -106 0
-177 176 0
-177 51 0
177 -176 -51 0
178 174 0
-178 -174 0
-179 178 0
-179 173 0
179 -178 -173 0
180 -177 0
180 -179 0
-180 177 179 0
-181 111 56 0
-181 -111 -56 0
181 -111 56 0
181 111 -56 0
-182 181 180 0
-182 -181 -180 0
182 -181 180 0
182 181 -180 0
183 111 0
-183 -111 0
-184 183 0
-184 56 0
184 -183 -56 0
185 181 0
-185 -181 0
-186 185 0
-186 180 0
186 -185 -180 0
187 -184 0
187 -186 0
-187 184 186 0
-188 116 61 0
-188 -116 -61 0
188 -116 61 0
188 116 -61 0
-189 188 187 0
-189 -188 -187 0
189 -188 187 0
189 188 -187 0
190 116 0
-190 -116 0
-191 190 0
-191 61 0
191 -190 -61 0
192 188 0
-192 -188 0
-193 192 0
-193 187 0
193 -192 -187 0
194 -191 0
194 -193 0
-194 191 193 0
-195 121 66 0
-195 -121 -66 0
195 -121 66 0
195 121 -66 0
-196 195 194 0
-196 -195 -194 0
196 -195 194 0
196 195 -194 0
197 121 0
-197 -121 0
-198 197 0
-198 66 0
198 -197 -66 0
199 195 0
-199 -195 0
-200 199 0
-200 194 0
200 -199 -194 0
201 -198 0
201 -200 0
-201 198 200 0
-202 126 71 0
-202 -126 -71 0
202 -126 71 0
202 126 -71 0
-203 202 201 0
-203 -202 -201 0
203 -202 201 0
203 202 -201 0
204 126 0
-204 -126 0
-205 204 0
-205 71 0
205 -204 -71 0
206 202 0
-206 -202 0
-207 206 0
-207 201 0
207 -206 -201 0
208 -205 0
208 -207 0
-208 205 207 0
-209 131 76 0
-209 -131 -76 0
209 -131 76 0
209 131 -76 0
-210 209 208 0
-210 -209 -208 0
210 -209 208 0
210 209 -208 0
211 131 0
-211 -131 0
-212 211 0
-212 76 0
212 -211 -76 0
213 209 0
-213 -209 0
-214 213 0
-214 208 0
214 -213 -208 0
215 -212 0
215 -214 0
-215 212 214 0
-216 134 77 0
-216 -134 -77 0
216 -134 77 0
216 134 -77 0
-217 216 215 0
-217 -216 -215 0
217 -216 215 0
217 216 -215 0
218 134 0
-218 -134 0
-219 218 0
-219 77 0
219 -218 -77 0
220 216 0
-220 -216 0
-221 220 0
-221 215 0
221 -220 -215 0
222 -219 0
222 -221 0
-222 219 221 0
-223 27 78 0
-223 -27 -78 0
223 -27 78 0
223 27 -78 0
224 27 0
-224 -27 0
-225 224 0
-225 78 0
225 -224 -78 0
226 223 0
-226 -223 0
-227 31 81 0
-227 -31 -81 0
227 -31 81 0
227 31 -81 0
-228 227 225 0
-228 -227 -225 0
228 -227 225 0
228 227 -225 0
229 31 0
-229 -31 0
-230 229 0
-230 81 0
230 -229 -81 0
231 227 0
-231 -227 0
-232 231 0
-232 225 0
232 -231 -225 0
233 -230 0
233 -232 0
-233 230 232 0
-234 34 86 0
-234 -34 -86 0
234 -34 86 0
234 34 -86 0
-235 234 233 0
-235 -234 -233 0
235 -234 233 0
235 234 -233 0
236 34 0
-236 -34 0
-237 236 0
-237 86 0
237 -236 -86 0
238 234 0
-238 -234 0
-239 238 0
-239 233 0
239 -238 -233 0
240 -237 0
240 -239 0
-240 237 239 0
-241 38 91 0
-241 -38 -91 0
241 -38 91 0
241 38 -91 0
-242 241 240 0
-242 -241 -240 0
242 -241 240 0
242 241 -240 0
243 38 0
-243 -38 0
-244 243 0
-244 91 0
244 -243 -91 0
245 241 0
-245 -241 0
-246 245 0
-246 240 0
246 -245 -240 0
247 -244 0
247 -246 0
-247 244 246 0
-248 41 96 0
-248 -41 -96 0
248 -41 96 0
248 41 -96 0
-249 248 247 0
-249 -248 -247 0
249 -248 247 0
249 248 -247 0
250 41 0
-250 -41 0
-251 250 0
-251 96 0
251 -250 -96 0
252 248 0
-252 -248 0
-253 252 0
-253 247 0
253 -252 -247 0
254 -251 0
254 -253 0
-254 251 253 0
-255 46 101 0
-255 -46 -101 0
255 -46 101 0
255 46 -101 0
-256 255 254 0
-256 -255 -254 0
256 -255 254 0
256 255 -254 0
257 46 0
-257 -46 0
-258 257 0
-258 101 0
258 -257 -101 0
259 255 0
-259 -255 0
-260 259 0
-260 254 0
260 -259 -254 0
261 -258 0
261 -260 0
-261 258 260 0
-262 51 106 0
-262 -51 -106 0
262 -51 106 0
262 51 -106 0
-263 262 261 0
-263 -262 -261 0
263 -262 261 0
263 262 -261 0
264 51 0
-264 -51 0
-265 264 0
-265 106 0
265 -264 -106 0
266 262 0
-266 -262 0
-267 266 0
-267 261 0
267 -266 -261 0
268 -265 0
268 -267 0
-268 265 267 0
-269 56 111 0
-269 -56 -111 0
269 -56 111 0
269 56 -111 0
-270 269 268 0
-270 -269 -268 0
270 -269 268 0
270 269 -268 0
271 56 0
-271 -56 0
-272 271 0
-272 111 0
272 -271 -111 0
273 269 0
-273 -269 0
-274 273 0
-274 268 0
274 -273 -268 0
275 -272 0
275 -274 0
-275 272 274 0
-276 61 116 0
-276 -61 -116 0
276 -61 116 0
276 61 -116 0
-277 276 275 0
-277 -276 -275 0
277 -276 275 0
277 276 -275 0
278 61 0
-278 -61 0
-279 278 0
-279 116 0
279 -278 -116 0
280 276 0
-280 -276 0
-281 280 0
-281 275 0
281 -280 -275 0
282 -279 0
282 -281 0
-282 279 281 0
-283 66 121 0
-283 -66 -121 0
283 -66 121 0
283 66 -121 0
-284 283 282 0
-284 -283 -282 0
284 -283 282 0
284 283 -282 0
285 66 0
-285 -66 0
-286 285 0
-286 121 0
286 -285 -121 0
287 283 0
-287 -283 0
-288 287 0
-288 282 0
288 -287 -282 0
289 -286 0
289 -288 0
-289 286 288 0
-290 71 126 0
-290 -71 -126 0
290 -71 126 0
290 71 -126 0
-291 290 289 0
-291 -290 -289 0
291 -290 289 0
291 290 -289 0
292 71 0
-292 -71 0
-293 292 0
-293 126 0
293 -292 -126 0
294 290 0
-294 -290 0
-295 294 0
-295 289 0
295 -294 -289 0
296 -293 0
296 -295 0
-296 293 295 0
-297 76 131 0
-297 -76 -131 0
297 -76 131 0
297 76 -131 0
-298 297 296 0
-298 -297 -296 0
298 -297 296 0
298 297 -296 0
299 76 0
-299 -76 0
-300 299 0
-300 131 0
300 -299 -131 0
301 297 0
-301 -297 0
-302 301 0
-302 296 0
302 -301 -296 0
303 -300 0
303 -302 0
-303 300 302 0
-304 77 134 0
-304 -77 -134 0
304 -77 134 0
304 77 -134 0
-305 304 303 0
-305 -304 -303 0
305 -304 303 0
305 304 -303 0
306 77 0
-306 -77 0
-307 306 0
-307 134 0
307 -306 -134 0
308 304 0
-308 -304 0
-309 308 0
-309 303 0
309 -308 -303 0
310 -307 0
310 -309 0
-310 307 309 0
311 77 0
-311 -77 0
-312 134 0
-312 311 0
312 -134 -311 0
313 134 77 0
313 -134 -77 0
-313 -134 77 0
-313 134 -77 0
314 76 0
-314 -76 0
-315 131 0
-315 314 0
315 -131 -314 0
-316 315 0
-316 313 0
316 -315 -313 0
317 -312 0
317 -316 0
-317 312 316 0
318 131 76 0
318 -131 -76 0
-318 -131 76 0
-318 131 -76 0
-319 313 0
-319 318 0
319 -313 -318 0
320 71 0
-320 -71 0
-321 126 0
-321 320 0
321 -126 -320 0
-322 321 0
-322 319 0
322 -321 -319 0
323 -317 0
323 -322 0
-323 317 322 0
324 126 71 0
324 -126 -71 0
-324 -126 71 0
-324 126 -71 0
-325 319 0
-325 324 0
325 -319 -324 0
326 66 0
-326 -66 0
-327 121 0
-327 326 0
327 -121 -326 0
-328 327 0
-328 325 0
328 -327 -325 0
329 -323 0
329 -328 0
-329 323 328 0
330 121 66 0
330 -121 -66 0
-330 -121 66 0
-330 121 -66 0
-331 325 0
-331 330 0
331 -325 -330 0
332 61 0
-332 -61 0
-333 116 0
-333 332 0
333 -116 -332 0
-334 333 0
-334 331 0
334 -333 -331 0
335 -329 0
335 -334 0
-335 329 334 0
336 116 61 0
336 -116 -61 0
-336 -116 61 0
-336 116 -61 0
-337 331 0
-337 336 0
337 -331 -336 0
338 56 0
-338 -56 0
-339 111 0
-339 338 0
339 -111 -338 0
-340 339 0
-340 337 0
340 -339 -337 0
341 -335 0
341 -340 0
-341 335 340 0
342 111 56 0
342 -111 -56 0
-342 -111 56 0
-342 111 -56 0
-343 337 0
-343 342 0
343 -337 -342 0
344 51 0
-344 -51 0
-345 106 0
-345 344 0
345 -106 -344 0
-346 345 0
-346 343 0
346 -345 -343 0
347 -341 0
347 -346 0
-347 341 346 0
348 106 51 0
348 -106 -51 0
-348 -106 51 0
-348 106 -51 0
-349 343 0
-349 348 0
349 -343 -348 0
350 46 0
-350 -46 0
-351 101 0
-351 350 0
351 -101 -350 0
-352 351 0
-352 349 0
352 -351 -349 0
353 -347 0
353 -352 0
-353 347 352 0
354 101 46 0
354 -101 -46 0
-354 -101 46 0
-354 101 -46 0
-355 349 0
-355 354 0
355 -349 -354 0
356 41 0
-356 -41 0
-357 96 0
-357 356 0
357 -96 -356 0
-358 357 0
-358 355 0
358 -357 -355 0
359 -353 0
359 -358 0
-359 353 358 0
360 96 41 0
360 -96 -41 0
-360 -96 41 0
-360 96 -41 0
-361 355 0
-361 360 0
361 -355 -360 0
362 38 0
-362 -38 0
-363 91 0
-363 362 0
363 -91 -362 0
-364 363 0
-364 361 0
364 -363 -361 0
365 -359 0
365 -364 0
-365 359 364 0
366 91 38 0
366 -91 -38 0
-366 -91 38 0
-366 91 -38 0
-367 361 0
-367 366 0
367 -361 -366 0
368 34 0
-368 -34 0
-369 86 0
-369 368 0
369 -86 -368 0
-370 369 0
-370 367 0
370 -369 -367 0
371 -365 0
371 -370 0
-371 365 370 0
372 86 34 0
372 -86 -34 0
-372 -86 34 0
-372 86 -34 0
-373 367 0
-373 372 0
373 -367 -372 0
374 31 0
-374 -31 0
-375 81 0
-375 374 0
375 -81 -374 0
-376 375 0
-376 373 0
376 -375 -373 0
377 -371 0
377 -376 0
-377 371 376 0
378 81 31 0
378 -81 -31 0
-378 -81 31 0
-378 81 -31 0
-379 373 0
-379 378 0
379 -373 -378 0
380 27 0
-380 -27 0
-381 78 0
-381 380 0
381 -78 -380 0
-382 381 0
-382 379 0
382 -381 -379 0
383 -377 0
383 -382 0
-383 377 382 0
384 78 27 0
384 -78 -27 0
-384 -78 27 0
-384 78 -27 0
-385 379 0
-385 384 0
385 -379 -384 0
-386 383 0
-386 135 0
386 -383 -135 0
387 383 0
-387 -383 0
-388 387 0
-388 223 0
388 -387 -223 0
389 -386 0
389 -388 0
-389 386 388 0
-390 383 0
-390 140 0
390 -383 -140 0
391 383 0
-391 -383 0
-392 391 0
-392 228 0
392 -391 -228 0
393 -390 0
393 -392 0
-393 390 392 0
-394 383 0
-394 147 0
394 -383 -147 0
395 383 0
-395 -383 0
-396 395 0
-396 235 0
396 -395 -235 0
397 -394 0
397 -396 0
-397 394 396 0
-398 383 0
-398 154 0
398 -383 -154 0
399 383 0
-399 -383 0
-400 399 0
-400 242 0
400 -399 -242 0
401 -398 0
401 -400 0
-401 398 400 0
-402 383 0
-402 161 0
402 -383 -161 0
403 383 0
-403 -383 0
-404 403 0
-404 249 0
404 -403 -249 0
405 -402 0
405 -404 0
-405 402 404 0
-406 383 0
-406 168 0
406 -383 -168 0
407 383 0
-407 -383 0
-408 407 0
-408 256 0
408 -407 -256 0
409 -406 0
409 -408 0
-409 406 408 0
-410 383 0
-410 175 0
410 -383 -175 0
411 383 0
-411 -383 0
-412 411 0
-412 263 0
412 -411 -263 0
413 -410 0
413 -412 0
-413 410 412 0
-414 383 0
-414 182 0
414 -383 -182 0
415 383 0
-415 -383 0
-416 415 0
-416 270 0
416 -415 -270 0
417 -414 0
417 -416 0
-417 414 416 0
-418 383 0
-418 189 0
418 -383 -189 0
419 383 0
-419 -383 0
-420 419 0
-420 277 0
420 -419 -277 0
421 -418 0
421 -420 0
-421 418 420 0
-422 383 0
-422 196 0
422 -383 -196 0
423 383 0
-423 -383 0
-424 423 0
-424 284 0
424 -423 -284 0
425 -422 0
425 -424 0
-425 422 424 0
-426 383 0
-426 203 0
426 -383 -203 0
427 383 0
-427 -383 0
-428 427 0
-428 291 0
428 -427 -291 0
429 -426 0
429 -428 0
-429 426 428 0
-430 383 0
-430 210 0
430 -383 -210 0
431 383 0
-431 -383 0
-432 431 0
-432 298 0
432 -431 -298 0
433 -430 0
433 -432 0
-433 430 432 0
-434 383 0
-434 217 0
434 -383 -217 0
435 383 0
-435 -383 0
-436 435 0
-436 305 0
436 -435 -305 0
437 -434 0
437 -436 0
-437 434 436 0
438 -389 0
438 -393 0
-438 389 393 0
439 -438 0
439 -397 0
-439 438 397 0
440 -439 0
440 -401 0
-440 439 401 0
441 -440 0
441 -405 0
-441 440 405 0
442 -441 0
442 -409 0
-442 441 409 0
443 -442 0
443 -413 0
-443 442 413 0
444 -443 0
444 -417 0
-444 443 417 0
445 -444 0
445 -421 0
-445 444 421 0
446 -445 0
446 -425 0
-446 445 425 0
447 -446 0
447 -429 0
-447 446 429 0
448 -447 0
448 -433 0
-448 447 433 0
449 -448 0
449 -437 0
-449 448 437 0
-25 0
26 0
421 0
