p cnf 398 1127
-27 1 13 0
-27 -1 -13 0
27 -1 13 0
27 1 -13 0
-28 1 0
-28 13 0
28 -1 -13 0
-29 2 14 0
-29 -2 -14 0
29 -2 14 0
29 2 -14 0
-30 29 28 0
-30 -29 -28 0
30 -29 28 0
30 29 -28 0
-31 2 0
-31 14 0
31 -2 -14 0
-32 28 0
-32 29 0
32 -28 -29 0
33 -31 0
33 -32 0
-33 31 32 0
-34 3 15 0
-34 -3 -15 0
34 -3 15 0
34 3 -15 0
-35 34 33 0
-35 -34 -33 0
35 -34 33 0
35 34 -33 0
-36 3 0
-36 15 0
36 -3 -15 0
-37 33 0
-37 34 0
37 -33 -34 0
38 -36 0
38 -37 0
-38 36 37 0
-39 4 16 0
-39 -4 -16 0
39 -4 16 0
39 4 -16 0
-40 39 38 0
-40 -39 -38 0
40 -39 38 0
40 39 -38 0
-41 4 0
-41 16 0
41 -4 -16 0
-42 38 0
-42 39 0
42 -38 -39 0
43 -41 0
43 -42 0
-43 41 42 0
-44 5 17 0
-44 -5 -17 0
44 -5 17 0
44 5 -17 0
-45 44 43 0
-45 -44 -43 0
45 -44 43 0
45 44 -43 0
-46 5 0
-46 17 0
46 -5 -17 0
-47 43 0
-47 44 0
47 -43 -44 0
48 -46 0
48 -47 0
-48 46 47 0
-49 6 18 0
-49 -6 -18 0
49 -6 18 0
49 6 -18 0
-50 49 48 0
-50 -49 -48 0
50 -49 48 0
50 49 -48 0
-51 6 0
-51 18 0
51 -6 -18 0
-52 48 0
-52 49 0
52 -48 -49 0
53 -51 0
53 -52 0
-53 51 52 0
-54 7 19 0
-54 -7 -19 0
54 -7 19 0
54 7 -19 0
-55 54 53 0
-55 -54 -53 0
55 -54 53 0
55 54 -53 0
-56 7 0
-56 19 0
56 -7 -19 0
-57 53 0
-57 54 0
57 -53 -54 0
58 -56 0
58 -57 0
-58 56 57 0
-59 8 20 0
-59 -8 -20 0
59 -8 20 0
59 8 -20 0
-60 59 58 0
-60 -59 -58 0
60 -59 58 0
60 59 -58 0
-61 8 0
-61 20 0
61 -8 -20 0
-62 58 0
-62 59 0
62 -58 -59 0
63 -61 0
63 -62 0
-63 61 62 0
-64 9 21 0
-64 -9 -21 0
64 -9 21 0
64 9 -21 0
-65 64 63 0
-65 -64 -63 0
65 -64 63 0
65 64 -63 0
-66 9 0
-66 21 0
66 -9 -21 0
-67 63 0
-67 64 0
67 -63 -64 0
68 -66 0
68 -67 0
-68 66 67 0
-69 10 22 0
-69 -10 -22 0
69 -10 22 0
69 10 -22 0
-70 69 68 0
-70 -69 -68 0
70 -69 68 0
70 69 -68 0
-71 10 0
-71 22 0
71 -10 -22 0
-72 68 0
-72 69 0
72 -68 -69 0
73 -71 0
73 -72 0
-73 71 72 0
-74 11 23 0
-74 -11 -23 0
74 -11 23 0
74 11 -23 0
-75 74 73 0
-75 -74 -73 0
75 -74 73 0
75 74 -73 0
-76 11 0
-76 23 0
76 -11 -23 0
-77 73 0
-77 74 0
77 -73 -74 0
78 -76 0
78 -77 0
-78 76 77 0
-79 12 24 0
-79 -12 -24 0
79 -12 24 0
79 12 -24 0
-80 79 78 0
-80 -79 -78 0
80 -79 78 0
80 79 -78 0
-81 12 0
-81 24 0
81 -12 -24 0
-82 78 0
-82 79 0
82 -78 -79 0
83 -81 0
83 -82 0
-83 81 82 0
-84 27 18 0
-84 -27 -18 0
84 -27 18 0
84 27 -18 0
85 27 0
-85 -27 0
-86 85 0
-86 18 0
86 -85 -18 0
87 84 0
-87 -84 0
-88 30 20 0
-88 -30 -20 0
88 -30 20 0
88 30 -20 0
-89 88 86 0
-89 -88 -86 0
89 -88 86 0
89 88 -86 0
90 30 0
-90 -30 0
-91 90 0
-91 20 0
91 -90 -20 0
92 88 0
-92 -88 0
-93 92 0
-93 86 0
93 -92 -86 0
94 -91 0
94 -93 0
-94 91 93 0
-95 35 18 0
-95 -35 -18 0
95 -35 18 0
95 35 -18 0
-96 95 94 0
-96 -95 -94 0
96 -95 94 0
96 95 -94 0
97 35 0
-97 -35 0
-98 97 0
-98 18 0
98 -97 -18 0
99 95 0
-99 -95 0
-100 99 0
-100 94 0
100 -99 -94 0
101 -98 0
101 -100 0
-101 98 100 0
-102 40 8 0
-102 -40 -8 0
102 -40 8 0
102 40 -8 0
-103 102 101 0
-103 -102 -101 0
103 -102 101 0
103 102 -101 0
104 40 0
-104 -40 0
-105 104 0
-105 8 0
105 -104 -8 0
106 102 0
-106 -102 0
-107 106 0
-107 101 0
107 -106 -101 0
108 -105 0
108 -107 0
-108 105 107 0
-109 45 19 0
-109 -45 -19 0
109 -45 19 0
109 45 -19 0
-110 109 108 0
-110 -109 -108 0
110 -109 108 0
110 109 -108 0
111 45 0
-111 -45 0
-112 111 0
-112 19 0
112 -111 -19 0
113 109 0
-113 -109 0
-114 113 0
-114 108 0
114 -113 -108 0
115 -112 0
115 -114 0
-115 112 114 0
-116 50 21 0
-116 -50 -21 0
116 -50 21 0
116 50 -21 0
-117 116 115 0
-117 -116 -115 0
117 -116 115 0
117 116 -115 0
118 50 0
-118 -50 0
-119 118 0
-119 21 0
119 -118 -21 0
120 116 0
-120 -116 0
-121 120 0
-121 115 0
121 -120 -115 0
122 -119 0
122 -121 0
-122 119 121 0
-123 55 8 0
-123 -55 -8 0
123 -55 8 0
123 55 -8 0
-124 123 122 0
-124 -123 -122 0
124 -123 122 0
124 123 -122 0
125 55 0
-125 -55 0
-126 125 0
-126 8 0
126 -125 -8 0
127 123 0
-127 -123 0
-128 127 0
-128 122 0
128 -127 -122 0
129 -126 0
129 -128 0
-129 126 128 0
-130 60 23 0
-130 -60 -23 0
130 -60 23 0
130 60 -23 0
-131 130 129 0
-131 -130 -129 0
131 -130 129 0
131 130 -129 0
132 60 0
-132 -60 0
-133 132 0
-133 23 0
133 -132 -23 0
134 130 0
-134 -130 0
-135 134 0
-135 129 0
135 -134 -129 0
136 -133 0
136 -135 0
-136 133 135 0
-137 65 22 0
-137 -65 -22 0
137 -65 22 0
137 65 -22 0
-138 137 136 0
-138 -137 -136 0
138 -137 136 0
138 137 -136 0
139 65 0
-139 -65 0
-140 139 0
-140 22 0
140 -139 -22 0
141 137 0
-141 -137 0
-142 141 0
-142 136 0
142 -141 -136 0
143 -140 0
143 -142 0
-143 140 142 0
-144 70 10 0
-144 -70 -10 0
144 -70 10 0
144 70 -10 0
-145 144 143 0
-145 -144 -143 0
145 -144 143 0
145 144 -143 0
146 70 0
-146 -70 0
-147 146 0
-147 10 0
147 -146 -10 0
148 144 0
-148 -144 0
-149 148 0
-149 143 0
149 -148 -143 0
150 -147 0
150 -149 0
-150 147 149 0
-151 75 11 0
-151 -75 -11 0
151 -75 11 0
151 75 -11 0
-152 151 150 0
-152 -151 -150 0
152 -151 150 0
152 151 -150 0
153 75 0
-153 -75 0
-154 153 0
-154 11 0
154 -153 -11 0
155 151 0
-155 -151 0
-156 155 0
-156 150 0
156 -155 -150 0
157 -154 0
157 -156 0
-157 154 156 0
-158 80 12 0
-158 -80 -12 0
158 -80 12 0
158 80 -12 0
-159 158 157 0
-159 -158 -157 0
159 -158 157 0
159 158 -157 0
160 80 0
-160 -80 0
-161 160 0
-161 12 0
161 -160 -12 0
162 158 0
-162 -158 0
-163 162 0
-163 157 0
163 -162 -157 0
164 -161 0
164 -163 0
-164 161 163 0
-165 83 24 0
-165 -83 -24 0
165 -83 24 0
165 83 -24 0
-166 165 164 0
-166 -165 -164 0
166 -165 164 0
166 165 -164 0
167 83 0
-167 -83 0
-168 167 0
-168 24 0
168 -167 -24 0
169 165 0
-169 -165 0
-170 169 0
-170 164 0
170 -169 -164 0
171 -168 0
171 -170 0
-171 168 170 0
-172 18 27 0
-172 -18 -27 0
172 -18 27 0
172 18 -27 0
173 18 0
-173 -18 0
-174 173 0
-174 27 0
174 -173 -27 0
175 172 0
-175 -172 0
-176 20 30 0
-176 -20 -30 0
176 -20 30 0
176 20 -30 0
-177 176 174 0
-177 -176 -174 0
177 -176 174 0
177 176 -174 0
178 20 0
-178 -20 0
-179 178 0
-179 30 0
179 -178 -30 0
180 176 0
-180 -176 0
-181 180 0
-181 174 0
181 -180 -174 0
182 -179 0
182 -181 0
-182 179 181 0
-183 18 35 0
-183 -18 -35 0
183 -18 35 0
183 18 -35 0
-184 183 182 0
-184 -183 -182 0
184 -183 182 0
184 183 -182 0
185 18 0
-185 -18 0
-186 185 0
-186 35 0
186 -185 -35 0
187 183 0
-187 -183 0
-188 187 0
-188 182 0
188 -187 -182 0
189 -186 0
189 -188 0
-189 186 188 0
-190 8 40 0
-190 -8 -40 0
190 -8 40 0
190 8 -40 0
-191 190 189 0
-191 -190 -189 0
191 -190 189 0
191 190 -189 0
192 8 0
-192 -8 0
-193 192 0
-193 40 0
193 -192 -40 0
194 190 0
-194 -190 0
-195 194 0
-195 189 0
195 -194 -189 0
196 -193 0
196 -195 0
-196 193 195 0
-197 19 45 0
-197 -19 -45 0
197 -19 45 0
197 19 -45 0
-198 197 196 0
-198 -197 -196 0
198 -197 196 0
198 197 -196 0
199 19 0
-199 -19 0
-200 199 0
-200 45 0
200 -199 -45 0
201 197 0
-201 -197 0
-202 201 0
-202 196 0
202 -201 -196 0
203 -200 0
203 -202 0
-203 200 202 0
-204 21 50 0
-204 -21 -50 0
204 -21 50 0
204 21 -50 0
-205 204 203 0
-205 -204 -203 0
205 -204 203 0
205 204 -203 0
206 21 0
-206 -21 0
-207 206 0
-207 50 0
207 -206 -50 0
208 204 0
-208 -204 0
-209 208 0
-209 203 0
209 -208 -203 0
210 -207 0
210 -209 0
-210 207 209 0
-211 8 55 0
-211 -8 -55 0
211 -8 55 0
211 8 -55 0
-212 211 210 0
-212 -211 -210 0
212 -211 210 0
212 211 -210 0
213 8 0
-213 -8 0
-214 213 0
-214 55 0
214 -213 -55 0
215 211 0
-215 -211 0
-216 215 0
-216 210 0
216 -215 -210 0
217 -214 0
217 -216 0
-217 214 216 0
-218 23 60 0
-218 -23 -60 0
218 -23 60 0
218 23 -60 0
-219 218 217 0
-219 -218 -217 0
219 -218 217 0
219 218 -217 0
220 23 0
-220 -23 0
-221 220 0
-221 60 0
221 -220 -60 0
222 218 0
-222 -218 0
-223 222 0
-223 217 0
223 -222 -217 0
224 -221 0
224 -223 0
-224 221 223 0
-225 22 65 0
-225 -22 -65 0
225 -22 65 0
225 22 -65 0
-226 225 224 0
-226 -225 -224 0
226 -225 224 0
226 225 -224 0
227 22 0
-227 -22 0
-228 227 0
-228 65 0
228 -227 -65 0
229 225 0
-229 -225 0
-230 229 0
-230 224 0
230 -229 -224 0
231 -228 0
231 -230 0
-231 228 230 0
-232 10 70 0
-232 -10 -70 0
232 -10 70 0
232 10 -70 0
-233 232 231 0
-233 -232 -231 0
233 -232 231 0
233 232 -231 0
234 10 0
-234 -10 0
-235 234 0
-235 70 0
235 -234 -70 0
236 232 0
-236 -232 0
-237 236 0
-237 231 0
237 -236 -231 0
238 -235 0
238 -237 0
-238 235 237 0
-239 11 75 0
-239 -11 -75 0
239 -11 75 0
239 11 -75 0
-240 239 238 0
-240 -239 -238 0
240 -239 238 0
240 239 -238 0
241 11 0
-241 -11 0
-242 241 0
-242 75 0
242 -241 -75 0
243 239 0
-243 -239 0
-244 243 0
-244 238 0
244 -243 -238 0
245 -242 0
245 -244 0
-245 242 244 0
-246 12 80 0
-246 -12 -80 0
246 -12 80 0
246 12 -80 0
-247 246 245 0
-247 -246 -245 0
247 -246 245 0
247 246 -245 0
248 12 0
-248 -12 0
-249 248 0
-249 80 0
249 -248 -80 0
250 246 0
-250 -246 0
-251 250 0
-251 245 0
251 -250 -245 0
252 -249 0
252 -251 0
-252 249 251 0
-253 24 83 0
-253 -24 -83 0
253 -24 83 0
253 24 -83 0
-254 253 252 0
-254 -253 -252 0
254 -253 252 0
254 253 -252 0
255 24 0
-255 -24 0
-256 255 0
-256 83 0
256 -255 -83 0
257 253 0
-257 -253 0
-258 257 0
-258 252 0
258 -257 -252 0
259 -256 0
259 -258 0
-259 256 258 0
260 24 0
-260 -24 0
-261 83 0
-261 260 0
261 -83 -260 0
262 83 24 0
262 -83 -24 0
-262 -83 24 0
-262 83 -24 0
263 12 0
-263 -12 0
-264 80 0
-264 263 0
264 -80 -263 0
-265 264 0
-265 262 0
265 -264 -262 0
266 -261 0
266 -265 0
-266 261 265 0
267 80 12 0
267 -80 -12 0
-267 -80 12 0
-267 80 -12 0
-268 262 0
-268 267 0
268 -262 -267 0
269 11 0
-269 -11 0
-270 75 0
-270 269 0
270 -75 -269 0
-271 270 0
-271 268 0
271 -270 -268 0
272 -266 0
272 -271 0
-272 266 271 0
273 75 11 0
273 -75 -11 0
-273 -75 11 0
-273 75 -11 0
-274 268 0
-274 273 0
274 -268 -273 0
275 10 0
-275 -10 0
-276 70 0
-276 275 0
276 -70 -275 0
-277 276 0
-277 274 0
277 -276 -274 0
278 -272 0
278 -277 0
-278 272 277 0
279 70 10 0
279 -70 -10 0
-279 -70 10 0
-279 70 -10 0
-280 274 0
-280 279 0
280 -274 -279 0
281 22 0
-281 -22 0
-282 65 0
-282 281 0
282 -65 -281 0
-283 282 0
-283 280 0
283 -282 -280 0
284 -278 0
284 -283 0
-284 278 283 0
285 65 22 0
285 -65 -22 0
-285 -65 22 0
-285 65 -22 0
-286 280 0
-286 285 0
286 -280 -285 0
287 23 0
-287 -23 0
-288 60 0
-288 287 0
288 -60 -287 0
-289 288 0
-289 286 0
289 -288 -286 0
290 -284 0
290 -289 0
-290 284 289 0
291 60 23 0
291 -60 -23 0
-291 -60 23 0
-291 60 -23 0
-292 286 0
-292 291 0
292 -286 -291 0
293 8 0
-293 -8 0
-294 55 0
-294 293 0
294 -55 -293 0
-295 294 0
-295 292 0
295 -294 -292 0
296 -290 0
296 -295 0
-296 290 295 0
297 55 8 0
297 -55 -8 0
-297 -55 8 0
-297 55 -8 0
-298 292 0
-298 297 0
298 -292 -297 0
299 21 0
-299 -21 0
-300 50 0
-300 299 0
300 -50 -299 0
-301 300 0
-301 298 0
301 -300 -298 0
302 -296 0
302 -301 0
-302 296 301 0
303 50 21 0
303 -50 -21 0
-303 -50 21 0
-303 50 -21 0
-304 298 0
-304 303 0
304 -298 -303 0
305 19 0
-305 -19 0
-306 45 0
-306 305 0
306 -45 -305 0
-307 306 0
-307 304 0
307 -306 -304 0
308 -302 0
308 -307 0
-308 302 307 0
309 45 19 0
309 -45 -19 0
-309 -45 19 0
-309 45 -19 0
-310 304 0
-310 309 0
310 -304 -309 0
311 8 0
-311 -8 0
-312 40 0
-312 311 0
312 -40 -311 0
-313 312 0
-313 310 0
313 -312 -310 0
314 -308 0
314 -313 0
-314 308 313 0
315 40 8 0
315 -40 -8 0
-315 -40 8 0
-315 40 -8 0
-316 310 0
-316 315 0
316 -310 -315 0
317 18 0
-317 -18 0
-318 35 0
-318 317 0
318 -35 -317 0
-319 318 0
-319 316 0
319 -318 -316 0
320 -314 0
320 -319 0
-320 314 319 0
321 35 18 0
321 -35 -18 0
-321 -35 18 0
-321 35 -18 0
-322 316 0
-322 321 0
322 -316 -321 0
323 20 0
-323 -20 0
-324 30 0
-324 323 0
324 -30 -323 0
-325 324 0
-325 322 0
325 -324 -322 0
326 -320 0
326 -325 0
-326 320 325 0
327 30 20 0
327 -30 -20 0
-327 -30 20 0
-327 30 -20 0
-328 322 0
-328 327 0
328 -322 -327 0
329 18 0
-329 -18 0
-330 27 0
-330 329 0
330 -27 -329 0
-331 330 0
-331 328 0
331 -330 -328 0
332 -326 0
332 -331 0
-332 326 331 0
333 27 18 0
333 -27 -18 0
-333 -27 18 0
-333 27 -18 0
-334 328 0
-334 333 0
334 -328 -333 0
-335 332 0
-335 84 0
335 -332 -84 0
336 332 0
-336 -332 0
-337 336 0
-337 172 0
337 -336 -172 0
338 -335 0
338 -337 0
-338 335 337 0
-339 332 0
-339 89 0
339 -332 -89 0
340 332 0
-340 -332 0
-341 340 0
-341 177 0
341 -340 -177 0
342 -339 0
342 -341 0
-342 339 341 0
-343 332 0
-343 96 0
343 -332 -96 0
344 332 0
-344 -332 0
-345 344 0
-345 184 0
345 -344 -184 0
346 -343 0
346 -345 0
-346 343 345 0
-347 332 0
-347 103 0
347 -332 -103 0
348 332 0
-348 -332 0
-349 348 0
-349 191 0
349 -348 -191 0
350 -347 0
350 -349 0
-350 347 349 0
-351 332 0
-351 110 0
351 -332 -110 0
352 332 0
-352 -332 0
-353 352 0
-353 198 0
353 -352 -198 0
354 -351 0
354 -353 0
-354 351 353 0
-355 332 0
-355 117 0
355 -332 -117 0
356 332 0
-356 -332 0
-357 356 0
-357 205 0
357 -356 -205 0
358 -355 0
358 -357 0
-358 355 357 0
-359 332 0
-359 124 0
359 -332 -124 0
360 332 0
-360 -332 0
-361 360 0
-361 212 0
361 -360 -212 0
362 -359 0
362 -361 0
-362 359 361 0
-363 332 0
-363 131 0
363 -332 -131 0
364 332 0
-364 -332 0
-365 364 0
-365 219 0
365 -364 -219 0
366 -363 0
366 -365 0
-366 363 365 0
-367 332 0
-367 138 0
367 -332 -138 0
368 332 0
-368 -332 0
-369 368 0
-369 226 0
369 -368 -226 0
370 -367 0
370 -369 0
-370 367 369 0
-371 332 0
-371 145 0
371 -332 -145 0
372 332 0
-372 -332 0
-373 372 0
-373 233 0
373 -372 -233 0
374 -371 0
374 -373 0
-374 371 373 0
-375 332 0
-375 152 0
375 -332 -152 0
376 332 0
-376 -332 0
-377 376 0
-377 240 0
377 -376 -240 0
378 -375 0
378 -377 0
-378 375 377 0
-379 332 0
-379 159 0
379 -332 -159 0
380 332 0
-380 -332 0
-381 380 0
-381 247 0
381 -380 -247 0
382 -379 0
382 -381 0
-382 379 381 0
-383 332 0
-383 166 0
383 -332 -166 0
384 332 0
-384 -332 0
-385 384 0
-385 254 0
385 -384 -254 0
386 -383 0
386 -385 0
-386 383 385 0
387 -338 0
387 -342 0
-387 338 342 0
388 -387 0
388 -346 0
-388 387 346 0
389 -388 0
389 -350 0
-389 388 350 0
390 -389 0
390 -354 0
-390 389 354 0
391 -390 0
391 -358 0
-391 390 358 0
392 -391 0
392 -362 0
-392 391 362 0
393 -392 0
393 -366 0
-393 392 366 0
394 -393 0
394 -370 0
-394 393 370 0
395 -394 0
395 -374 0
-395 394 374 0
396 -395 0
396 -378 0
-396 395 378 0
397 -396 0
397 -382 0
-397 396 382 0
398 -397 0
398 -386 0
-398 397 386 0
-25 0
26 0
378 0
